 $SYSTEM MWORDS=50 $END
 $CONTRL MAXIT=200 SCFTYP=RHF RUNTYP=ENERGY ISPHER=1 UNITS=ANGS
  EXETYP=RUN COORD=UNIQUE ICHARG=0                   $END
 $BASIS gbasis=CCD                                   $END
 $SCF DIRSCF=.TRUE.                                  $END
 $SCF DIIS=.TRUE.                                    $END
 $SCF SOSCF=.FALSE.                                  $END
 $STATPT NSTEP=1000                                  $END
 $GUESS GUESS=MOREAD                                 $END
 $ELMOM IEMOM=0                                      $END
 $DATA
 thymine HF/CCD local minima geometry
C1
O     8.0    -1.44933498     1.79439783     0.00044640
O     8.0     2.79466653     0.29273236    -0.00085290
N     7.0     0.65844464     1.02707720     0.00058461
N     7.0     1.12152076    -1.21735084     0.00013331
C     6.0    -1.16595423    -0.55046976     0.00036187
C     6.0    -0.71749181     0.85154724     0.00055574
C     6.0    -0.22725710    -1.49703038     0.00001485
C     6.0    -2.64409852    -0.81584191    -0.00012061
C     6.0     1.62601316     0.05546816    -0.00015133
H     1.0    -0.47166526    -2.54955006    -0.00035113
H     1.0     0.99026161     1.97194159     0.00024473
H     1.0     1.79830086    -1.95021844    -0.00059509
H     1.0    -3.11593628    -0.37167403    -0.87743038
H     1.0    -3.11652446    -0.37245324     0.87725419
H     1.0    -2.84604478    -1.88737607    -0.00079424
 $END
--- CLOSED SHELL ORBITALS --- GENERATED AT Wed Jun 24 03:38:12 2015
 thymine HF/CCD local minima geometry
E(RHF)=     -451.5505603540, E(NUC)=  442.8909119666,   12 ITERS
 $VEC
 1  1 1.00145878E+00 2.20507518E-03-6.96615331E-03 1.15200855E-03-1.44147882E-03
 1  2 2.26216611E-07-9.53158070E-04 1.36445529E-03-2.04567086E-07 9.51368760E-05
 1  3 1.29333835E-04-2.24470711E-04-1.09104483E-04 2.92032011E-08-2.59320288E-08
 1  4 1.47984452E-05-3.20247747E-08 7.42818716E-05-2.10163312E-05-1.14502063E-06
 1  5-2.65491930E-09 1.13096112E-05-7.52929953E-05 2.32175609E-08 6.77011495E-06
 1  6-4.41364187E-06-2.35647308E-06 1.53363507E-05 5.62957339E-09-5.37957890E-09
 1  7-1.58329115E-04-3.03252962E-04 1.35753166E-03 1.27948064E-04 4.10026946E-05
 1  8-4.83668442E-08-7.50375628E-04-7.26913315E-04 3.47352388E-07-1.01163633E-04
 1  9 1.44814963E-04-4.36513297E-05 1.80035225E-04 2.74797378E-08-2.66532893E-08
 1 10-1.38734718E-05-3.34689790E-05-3.44338524E-05 6.79765351E-06-1.31196482E-05
 1 11 1.07883940E-08 9.74167697E-05 1.33755681E-05 5.49879025E-08-2.94224708E-05
 1 12 5.31793388E-06 2.41045369E-05-4.38779163E-05 2.65066140E-09 7.27222703E-09
 1 13-9.83144247E-05-1.87169343E-04 1.50155286E-03-6.36980972E-05-3.18726400E-05
 1 14-1.44609258E-08 2.85904149E-03-2.34584298E-04 4.48722832E-07 2.98726898E-04
 1 15-2.20966261E-04-7.77606376E-05 2.05648128E-04 4.91424943E-08 1.27161939E-08
 1 16 3.11555520E-04 4.05651697E-04 3.68095057E-04 5.96826229E-05-1.26148652E-04
 1 17 2.41407546E-08-3.26071978E-03 3.01286457E-03-3.72469009E-07 1.13256335E-05
 1 18-3.08072559E-04 2.96746925E-04 7.35142423E-04-1.53578169E-08 5.62264265E-08
 1 19-3.85109788E-05-7.06706807E-05-1.46745192E-03 1.07690384E-05-5.01738818E-05
 1 20-2.18015971E-08 3.00110334E-04-3.40632371E-04-3.39546934E-07 1.77276693E-04
 1 21-1.28888675E-04-4.83880188E-05-4.55881858E-05 6.67156771E-10-8.58902928E-08
 1 22-5.50816719E-05-1.09362635E-04 1.59769931E-03-4.16156157E-05 2.69941312E-05
 1 23-3.62049546E-09 4.41612928E-04 5.98994424E-05 1.72789361E-07-7.27697525E-05
 1 24 7.48615395E-06 6.52835986E-05-8.89048499E-06-7.49218324E-08-2.10926883E-08
 1 25-1.16921744E-04-2.12485761E-04 3.92224468E-04 4.89442970E-05-1.96991036E-05
 1 26-4.56438048E-08-2.82948021E-04 3.18827806E-04 4.01133733E-08-7.56265888E-05
 1 27 1.24535258E-04-4.89086688E-05-2.67683963E-05 8.56739897E-08 3.14502084E-08
 1 28 1.23729599E-04 2.20985295E-05 1.43993849E-05 5.09862708E-05 2.73343071E-08
 1 29 3.24240221E-05 5.76945507E-05 1.02507654E-04 6.27128608E-05-4.36204540E-08
 1 30-1.40487153E-05 2.95728907E-05 8.01513103E-06 1.03233005E-05-1.77754478E-08
 1 31-5.20314714E-05-1.17027869E-04-1.99944938E-05-3.39255911E-06-3.09128864E-05
 1 32-5.20325388E-05-1.16903563E-04-1.99539922E-05-3.35500750E-06 3.09133311E-05
 1 33-8.08710375E-05 1.29037210E-05 1.52728588E-05-2.32164530E-06-4.97414477E-09
 2  1-1.83461080E-05-4.33034747E-06 1.13933878E-04 1.73640103E-05-1.41910079E-05
 2  2-1.81248633E-08-4.63070181E-05-8.69691335E-05 5.87589697E-08-1.21881179E-05
 2  3 1.58987397E-05-3.71062181E-06-1.19348264E-05-5.30582503E-09 5.78748796E-09
 2  4 1.00143315E+00 2.17044936E-03-6.63323150E-03-1.86670374E-03-3.86238499E-04
 2  5 1.14172097E-06 1.62936968E-03 3.36810321E-04-9.94545063E-07 1.89207029E-04
 2  6-1.41554108E-06-1.87791488E-04 4.83542632E-05-2.51277663E-07-7.90245960E-09
 2  7-1.11523453E-04-2.18134052E-04 8.63257440E-04-4.90494970E-05 9.61898212E-05
 2  8 2.41358137E-08-2.18035398E-04-9.35683120E-04 2.12617158E-07-1.84173588E-04
 2  9 2.19718154E-04-3.55445660E-05 8.55847442E-05 9.98920378E-08 9.43873017E-10
 2 10-1.18601473E-04-2.31054997E-04 9.04347349E-04-2.77877044E-06-1.01924563E-04
 2 11-1.69856092E-08-5.89959728E-04 6.39908671E-04 5.39526138E-07-6.20010216E-05
 2 12 1.02442396E-04-4.04413744E-05-2.29914926E-04-3.47533695E-09 1.28303018E-07
 2 13-5.35078431E-05-1.03918289E-04 1.22981359E-04-3.62986343E-05 8.35071489E-06
 2 14 1.51125549E-08 3.19249709E-04 2.16113269E-04 1.33951863E-07 1.02423350E-06
 2 15-2.93277029E-06 1.90853679E-06 8.90471611E-06-2.28987135E-08-7.34107906E-09
 2 16-1.00247961E-04-1.85711205E-04-1.19153511E-04-6.20084822E-05 9.78673280E-06
 2 17-3.56052832E-09 3.76352705E-04 2.23339395E-04-1.85161472E-07 3.54497751E-05
 2 18-1.03536495E-05-2.50961256E-05 1.14663807E-04-7.84464651E-08 2.94232639E-08
 2 19-1.27386251E-04-2.31688912E-04 9.89575578E-05-7.05779018E-05-4.21756009E-05
 2 20-3.08338103E-08 1.90653227E-04 1.92538802E-04-1.58663790E-07 9.60965016E-05
 2 21-4.80336316E-05-4.80628700E-05-6.91379394E-05-1.04748712E-07-7.57898719E-08
 2 22-3.74746488E-05-6.63691147E-05 3.50531557E-04 7.67129364E-07-4.03983226E-06
 2 23-9.71960723E-09 2.04335286E-04 3.79732359E-05 1.54258381E-07 1.57451748E-05
 2 24 1.83876149E-06-1.75839363E-05 5.40791021E-06-3.32035632E-09 1.83362692E-08
 2 25 2.64803465E-04 3.19612663E-04 9.89183477E-04-1.30850860E-04-3.51899948E-05
 2 26 5.85687115E-08 3.55220312E-03 6.88681862E-04-2.15469008E-06-7.79346673E-04
 2 27 4.74715688E-04 3.04630985E-04-3.02142874E-04 7.60266912E-07 1.99260355E-07
 2 28 6.02044567E-05 1.45584671E-04-2.66397935E-05 4.18719026E-05 1.53410991E-08
 2 29 8.80136228E-05 2.63557517E-05-1.78336324E-05 9.80684909E-05 8.54475947E-09
 2 30 5.71599924E-05 1.61179391E-05 2.43908871E-05-1.03242770E-04-4.30681914E-08
 2 31-1.76956445E-05 2.27604316E-05-3.19640912E-06-2.30930734E-06 4.38921563E-06
 2 32-1.77575407E-05 2.27178445E-05-3.20513990E-06-2.29447107E-06-4.39144043E-06
 2 33-1.54682816E-05 2.54969075E-05 2.47333463E-06-5.91646938E-07-8.71339835E-09
 3  1-1.12197394E-05-2.37492370E-05-7.69991542E-05-3.47544728E-05-2.32174609E-06
 3  2 2.08220085E-08 8.25679454E-05 2.13900656E-04-9.80594017E-08 1.02143420E-05
 3  3-1.28029775E-05 2.58863545E-06 1.45915958E-05-7.79620096E-10 7.44101731E-09
 3  4-6.41606233E-05-1.40704741E-04 2.01654834E-04 6.51435721E-05-1.44212715E-05
 3  5-1.30644033E-08 2.07737601E-05 5.57490157E-04 2.27220862E-08-6.41661446E-06
 3  6 1.84064406E-05-1.19898262E-05-8.79713363E-05-2.35431351E-08 4.84463551E-08
 3  7-8.94197288E-04-1.19249931E-04-2.64376258E-05-6.59606642E-05 4.48710186E-05
 3  8 3.00076916E-08 6.47244674E-04 3.89037419E-04-3.10072352E-07 7.37481261E-05
 3  9 7.81270384E-06-8.15608300E-05 1.10596962E-05-1.33908777E-07-3.77970753E-09
 3 10 1.00207469E+00 3.85789945E-03-1.01875400E-02-1.09127695E-04 5.63492277E-05
 3 11-1.52182468E-06 1.55056800E-03-1.57375378E-03 1.04540154E-06 5.14433037E-05
 3 12 4.94803993E-05-1.00923703E-04-1.40326343E-04-2.37188104E-07 2.38793637E-07
 3 13 8.30355724E-05 1.32335432E-04-2.50935264E-03-4.82841544E-05 5.50702624E-05
 3 14 2.98192684E-09-2.10319216E-03-2.10920702E-03-3.95288351E-07-1.20008089E-04
 3 15 1.28762310E-04-8.75422166E-06 2.75364413E-05 3.97916566E-08 1.15581361E-07
 3 16-6.51379299E-05-1.10211482E-04 2.84857805E-03 2.16271653E-05 1.91609363E-05
 3 17-5.94234509E-08-3.15474457E-04-1.39564192E-03 1.54267611E-07-3.36209992E-06
 3 18 7.69656381E-05-7.36035382E-05-3.56153526E-05 6.93770436E-08 1.39359292E-08
 3 19 1.02150100E-04 1.01927948E-04 3.30895947E-03 8.48154485E-05-1.59541882E-05
 3 20-6.67150365E-08 2.59080858E-03 2.01808589E-03 4.37907481E-07-3.87670796E-04
 3 21 3.81527316E-04 6.14347978E-06-7.97439251E-06-1.07820894E-07 2.01097978E-07
 3 22-1.12840850E-05-2.39434766E-05-9.27274797E-04-2.13747380E-05 2.00850276E-05
 3 23 2.08612026E-08-2.27401191E-04 1.21445453E-04-3.48692847E-07 2.52420611E-05
 3 24 1.24342204E-05-3.76762815E-05 8.38683170E-05 1.63296168E-08 4.76319261E-08
 3 25 1.18165320E-04 1.17223296E-04 2.34754294E-03-6.23958274E-05-1.31280038E-04
 3 26-6.01828982E-08-9.68903543E-04-2.28681548E-03 2.95910898E-07 2.38340577E-04
 3 27-3.13757373E-04 7.54167966E-05-6.05869267E-05-1.85252078E-07 1.60098394E-07
 3 28-9.82126740E-05 6.03338791E-04-2.09741946E-04-1.18261895E-04-1.23362723E-08
 3 29-1.44520707E-04 2.53403304E-04-1.72188198E-05-1.83970836E-05-4.59352102E-08
 3 30-2.54025791E-04-1.24339157E-04 3.54058226E-04-4.46747988E-04-6.21927637E-07
 3 31 4.74408314E-05-4.66263852E-05-1.07199973E-05-7.64549291E-06 2.08665838E-05
 3 32 4.75167080E-05-4.64708689E-05-1.07334657E-05-7.64622038E-06-2.08500077E-05
 3 33-2.61216679E-05 1.73801171E-04 8.62123922E-06-4.52505209E-06 3.03100140E-08
 4  1-1.03937583E-04-2.13969703E-04 5.90110384E-04-1.36524194E-05 5.52777297E-05
 4  2-1.80543027E-08-5.35112868E-04-2.86595228E-04 1.22527460E-07-4.51553987E-05
 4  3 5.01590964E-05-5.00369771E-06 6.06878238E-05-8.19558075E-09-1.11557807E-08
 4  4-6.51717428E-05-1.42970654E-04 1.89928270E-04 6.05505137E-05 3.28694364E-05
 4  5-1.20187383E-08 2.35519925E-04-5.11672068E-04-1.94969307E-07-6.22533528E-05
 4  6 7.49580104E-05-1.27046576E-05 6.10427016E-05 3.05876913E-08-2.40937902E-08
 4  7 1.00208887E+00 3.87964349E-03-1.05301584E-02 8.55520143E-05-1.25091359E-04
 4  8-1.29745471E-06 9.63570228E-04 1.67586823E-03 1.51971576E-06-4.43365278E-05
 4  9 1.51885613E-04-1.07549085E-04 5.19542929E-05-9.61692277E-08-1.61357362E-07
 4 10 7.81212681E-04-1.12443162E-04-3.55249086E-05-4.77947141E-05-7.54885049E-05
 4 11 1.99916933E-08 8.28114453E-04-6.22499295E-05-4.62527769E-07 7.28181853E-05
 4 12 5.69368046E-07-7.33875534E-05 2.68070129E-05-1.42557007E-07-1.86800566E-08
 4 13 2.12096530E-05 2.38160476E-05-1.86523300E-03-1.23680539E-05-8.30132347E-05
 4 14-3.60473582E-08-2.13500172E-03 1.66434541E-03 5.26157600E-07-3.63232883E-05
 4 15 7.19679423E-05-3.56446540E-05-4.10036966E-05 1.93579421E-08-6.29798244E-09
 4 16 8.16232732E-05 6.41651764E-05 2.53375352E-03 1.11976403E-04-2.08289505E-06
 4 17-6.24549365E-08 3.72846542E-03 1.29922205E-04-2.62712403E-07-1.80925935E-04
 4 18 1.47945406E-04 3.29805291E-05-1.96090713E-04-1.30699076E-07-7.18322024E-08
 4 19-5.98416222E-05-9.63059065E-05 3.15394759E-03 1.43545854E-05-9.53033594E-06
 4 20-4.24537753E-08-7.75083598E-04 9.76990326E-04 6.93036752E-07 8.80438144E-08
 4 21 9.26825888E-05-9.27706326E-05-3.64636386E-06 4.92347043E-08 1.18350139E-07
 4 22-8.05240493E-05-1.46778777E-04-3.41499899E-04-3.46838122E-05-5.05086235E-05
 4 23-2.04690768E-08 2.01301197E-05 1.41630565E-04-1.82274137E-07 3.30573248E-05
 4 24-3.12587736E-05-1.79855120E-06-4.37649682E-05-3.88629982E-08-6.04694743E-08
 4 25 9.74492820E-05 7.26223310E-05 2.18088515E-03-7.78000410E-05 6.28888781E-05
 4 26-3.98359224E-08-1.71410536E-03 1.71513726E-03 1.06391431E-06 1.10364399E-04
 4 27-2.06037115E-04 9.56727168E-05 3.32519920E-04 4.07840684E-08-4.02876308E-07
 4 28-1.28270857E-04 4.56598815E-05 2.84340718E-05-6.60606802E-05-5.15835695E-08
 4 29-1.46277222E-04-8.49635152E-05 1.57051828E-04 5.15884383E-04-3.31317920E-07
 4 30-1.52040747E-04 2.17805554E-04-2.56931526E-05 8.97552726E-06-3.63102771E-08
 4 31-8.28508734E-05 1.37802787E-05-3.22864724E-05-1.76732938E-05-3.21532971E-06
 4 32-8.28208278E-05 1.39154022E-05-3.23258250E-05-1.77371142E-05 3.17868012E-06
 4 33 7.38244449E-05 1.11759775E-04-3.20857932E-06 2.75270041E-05 4.26111774E-08
 5  1-9.98958389E-05-1.87751790E-04 7.25179680E-04-3.22779557E-06 1.84663054E-05
 5  2-5.58096481E-08 1.76453217E-06 3.36794072E-04 3.09619851E-07 1.28680394E-05
 5  3-6.88358896E-05 5.59678502E-05 4.10077959E-05 4.86238649E-09 1.10607143E-08
 5  4-1.52132173E-04 5.81668261E-04-2.09092855E-03-4.64737747E-04-9.55476390E-05
 5  5 3.43141085E-07 1.17022033E-03 2.40689467E-04-9.46825264E-07 2.92489871E-04
 5  6-2.02654209E-04-8.98356617E-05 1.22418250E-04-2.66610478E-07-8.62125687E-08
 5  7 9.23152292E-05 5.63378439E-04-2.94610963E-03 1.22041343E-04-2.06745752E-04
 5  8-5.76849289E-08-1.36584820E-03 2.06905266E-03 1.40444595E-06-1.19346152E-04
 5  9-2.51835612E-04 3.71181764E-04 1.13216435E-04 3.38866130E-07-2.49153566E-07
 5 10 1.43046679E-04 6.56333300E-04-3.47231752E-03 2.02864518E-05 2.39820831E-04
 5 11 6.84594247E-08-1.27968994E-04-2.65564581E-03 3.72174699E-07-9.61219602E-05
 5 12-3.05216774E-04 4.01338734E-04-7.31644604E-06 2.54171105E-07 7.83844210E-08
 5 13 2.65184692E-04 4.94487862E-04-7.10490322E-03-4.12812244E-05-1.80242279E-05
 5 14-3.64304637E-08-3.68092150E-03-3.74271683E-04 8.46448671E-07-1.45445868E-04
 5 15 3.86735464E-05 1.06772322E-04-3.66058467E-05 3.03021717E-08-1.31225340E-08
 5 16-4.63899005E-04-3.69105615E-04 3.16895308E-03-5.25184184E-05 4.38812573E-06
 5 17-1.72455246E-08 6.82688422E-04-2.99834338E-03-1.04667975E-06 1.59734191E-04
 5 18 2.90219381E-05-1.88756129E-04-2.72767584E-04-8.04248515E-08 1.88506013E-08
 5 19-3.07803778E-04-3.17078927E-04 4.53486017E-03-6.76386170E-06-5.75926827E-05
 5 20-1.81540953E-08-5.01153425E-04 4.11979278E-03 7.61802985E-07 1.83384667E-05
 5 21 2.34362426E-04-2.52700893E-04 2.82135706E-04 1.83329198E-08 1.81724285E-07
 5 22 1.60019616E-05 3.23415461E-05-8.37625225E-04 5.29287542E-05 1.01788898E-05
 5 23 5.25819519E-08-2.87544243E-04-1.20590628E-04-7.16302415E-07 6.07452491E-05
 5 24-5.68197534E-05-3.92549572E-06 1.10749109E-06-3.99918978E-08-2.94264434E-08
 5 25 1.00173339E+00 3.54607020E-03 1.38675118E-03-6.83877290E-04-1.75377635E-04
 5 26 4.82408501E-07 3.74864884E-04 2.83041901E-05 3.82672525E-07 8.58108233E-04
 5 27 3.24338486E-04-1.18244672E-03 1.52856602E-04-1.56777312E-06 8.49355323E-09
 5 28 1.08779800E-04 1.22433178E-03 6.20885953E-05-2.00312909E-04-2.20992494E-09
 5 29 2.87168493E-05 1.71160868E-04 1.67434953E-04-3.03427246E-04-1.96055676E-07
 5 30 1.94313026E-05-2.38175479E-05 3.41230260E-05 3.48642990E-04-7.09744189E-08
 5 31-2.00613351E-05-4.39777368E-06-1.45110127E-05-1.99840538E-06 3.67462403E-06
 5 32-1.99592228E-05-4.15353844E-06-1.45731756E-05-2.03241107E-06-3.64288037E-06
 5 33 2.99582886E-05-1.77948435E-04-2.16741640E-05 9.66519825E-06 5.15799604E-08
 6  1-1.39806005E-04 6.03569947E-04-1.95509282E-03 3.32487373E-04-3.14862227E-04
 6  2 5.50497340E-08-1.22801938E-03 3.75254837E-04-3.12695712E-07-7.72516264E-05
 6  3 1.33291162E-04-5.60395352E-05-2.59343540E-04-1.75621005E-08-1.15158507E-08
 6  4-1.02389212E-04-1.91471421E-04 7.07135608E-04 1.49009934E-05 2.26017118E-05
 6  5-5.13964222E-08 9.08373155E-05 1.72003567E-04 1.98029385E-07-4.59540311E-05
 6  6 1.33617279E-07 4.58204139E-05-3.76049075E-05 6.21061496E-08 1.90518790E-08
 6  7 1.69053094E-04 6.60552058E-04-3.25053091E-03-2.91660739E-04-7.92870835E-06
 6  8 1.06499184E-07 3.34947176E-03-2.15435752E-04-1.44489247E-07-3.92595157E-04
 6  9-3.38001954E-05 4.26395353E-04-1.13973562E-04-7.18057805E-08-1.65051822E-08
 6 10 9.22386258E-05 1.55467628E-04-1.37235069E-03 4.31865602E-05 4.59181390E-05
 6 11-3.33034783E-08-1.64118987E-04-8.11213950E-04 2.98832848E-07 1.73304804E-05
 6 12-1.46395131E-05-2.69096730E-06 7.24096193E-05-7.81019996E-10-1.38753175E-08
 6 13 3.15695843E-03-6.50904941E-05 8.91639857E-04-1.82301189E-05-2.92935167E-05
 6 14-4.82242465E-08-1.98996955E-04 3.34202435E-03 1.03667601E-06-1.97021746E-04
 6 15-8.57947233E-05 2.82816470E-04-9.15292573E-05-4.27340237E-08-1.12445710E-07
 6 16 1.00188382E+00 3.80557886E-03-3.61902036E-03 7.55284693E-04 4.52242119E-04
 6 17-1.57979323E-08 2.34564854E-03 4.06402830E-03 4.50408691E-07 5.84229652E-04
 6 18 3.45568463E-04-9.29798114E-04-3.97078275E-04 1.03221212E-07-6.79850798E-08
 6 19-9.86943950E-05-1.97137690E-04 2.43894586E-03-1.60730684E-05 1.19508858E-06
 6 20-4.78565086E-08-1.31045215E-03 9.29341445E-04 3.70003042E-07-1.91411194E-05
 6 21 1.84174756E-04-1.65033637E-04 2.80937761E-05-5.15360111E-08 1.53948976E-07
 6 22-1.48190973E-04-1.90423354E-04 5.95092896E-04 4.00582795E-05-5.72443749E-05
 6 23-2.69893077E-09 6.04617440E-04-4.95721566E-05 7.66347226E-08 1.11362315E-04
 6 24-1.19971554E-06-1.10162599E-04 6.14504210E-06 1.14174469E-07-1.58957473E-08
 6 25 5.81358776E-05-3.13904173E-04 6.33420321E-04 7.79196517E-05-1.36551354E-04
 6 26-6.05827372E-08-1.33644211E-03-1.53636283E-03-1.47773636E-07 3.02088168E-04
 6 27-1.42236029E-04-1.59852138E-04-3.74303987E-05-1.93075092E-07-1.34457330E-07
 6 28-1.54627088E-04 1.82560790E-04 2.33676518E-05-7.64899495E-05-2.93527560E-08
 6 29 1.70114031E-04-1.38806746E-04-3.07399644E-04-1.05724190E-04 3.86420696E-08
 6 30 2.91177998E-05-9.67210442E-06-3.85228030E-05 4.62900008E-05-1.45562300E-08
 6 31-6.66753098E-05 1.74000130E-04-1.60352774E-05-2.97893052E-05 2.84188143E-05
 6 32-6.65760138E-05 1.73834548E-04-1.60973571E-05-2.98333885E-05-2.84752840E-05
 6 33 1.20661180E-05 2.82051018E-05 1.20256773E-05 4.06889077E-06 1.39749178E-08
 7  1 9.36825908E-07-2.23896497E-06-3.51988095E-04-6.21317130E-05 3.25051466E-06
 7  2-1.57687734E-09 8.76882540E-05 3.22814753E-04-1.39747403E-08-8.82777097E-06
 7  3 1.71068515E-06 7.11708583E-06 3.66232567E-05-6.20551349E-09 1.22710900E-08
 7  4-1.01713922E-04-1.90091421E-04 7.32938287E-04 1.97628879E-05-1.95067796E-05
 7  5-5.56761812E-08 1.65612583E-04-1.24252859E-04 1.48268390E-07-6.70654081E-05
 7  6 1.88058274E-05 4.82595807E-05 1.10511150E-05 7.27361604E-08-7.75378395E-09
 7  7 8.71408189E-05 1.53476427E-04-1.21918137E-03 5.07802801E-05-3.93316967E-05
 7  8-8.31175787E-08-6.53979349E-04 7.60348623E-04 7.38290915E-07 6.48609596E-05
 7  9-3.88498173E-05-2.60111423E-05-1.64089181E-05-1.70244254E-08-5.32905405E-09
 7 10 2.00318366E-04 7.28294947E-04-3.78335053E-03-2.56140731E-04-3.89236731E-05
 7 11 9.73184564E-08 3.39536787E-03 6.52033240E-04 1.79807489E-07-4.28305841E-04
 7 12-2.21118064E-05 4.50417647E-04-1.41330780E-04-1.40631995E-07-2.01092280E-07
 7 13 1.18066907E-02-1.32144278E-04 5.21102188E-04-2.78374418E-05 1.13043261E-04
 7 14 2.23807980E-08-3.71695794E-05-4.16159179E-03-7.34485167E-07-1.89032758E-04
 7 15-1.38686847E-04 3.27719606E-04-2.46285254E-04-1.03036057E-07-9.33564363E-08
 7 16-1.82240739E-04-1.72705124E-04 3.23595107E-03-3.94176393E-05-9.56677614E-05
 7 17-8.11984289E-08-1.36104885E-03-1.81341754E-03-2.40297229E-07-8.20186912E-05
 7 18 2.46484933E-04-1.64466241E-04-1.03066355E-04-2.83209923E-08 2.02162599E-09
 7 19 1.00191294E+00 4.15665810E-03-5.29785916E-03 1.15069616E-03-3.09457900E-05
 7 20 1.00404186E-07 4.00823031E-03 1.05117557E-04 1.60068821E-08 5.19252516E-04
 7 21 3.95049931E-04-9.14302447E-04-2.83701983E-05 4.68195974E-08 5.72045507E-07
 7 22-7.65149365E-05-6.28813453E-05-3.39244361E-04 3.51232465E-05 3.18482523E-05
 7 23 7.11407272E-08 1.15420706E-04 2.61774279E-04-5.89339235E-07 1.49735877E-04
 7 24-1.27646805E-05-1.36971197E-04 7.79187984E-06 1.02697207E-07 6.58514158E-08
 7 25 6.39806785E-06-1.49707146E-04 9.12841857E-04-3.34985232E-05 7.18180159E-05
 7 26 4.78772744E-08-1.98593779E-03 8.60002599E-04 3.96080131E-07 1.92768606E-04
 7 27-2.59328781E-05-1.66835728E-04 2.42632950E-04-2.04774004E-07 3.99794520E-08
 7 28-3.09847590E-04 1.37156965E-03-3.73349689E-04-4.34784149E-04-1.58594478E-07
 7 29 2.09327551E-06 6.52416651E-05-1.96298518E-05-4.36328962E-05-6.37544173E-08
 7 30-4.06019512E-05-2.41973082E-04-3.51946217E-04-7.74277249E-05-6.29971549E-08
 7 31 5.86648157E-05 2.61430352E-05 2.75885925E-05-1.02651073E-05 1.83321161E-05
 7 32 5.89033120E-05 2.68101366E-05 2.76471488E-05-1.03121378E-05-1.83072182E-05
 7 33-4.95920406E-05 1.95197482E-04-2.56755092E-05 1.26867023E-05 6.39449967E-08
 8  1-1.70172178E-05-4.59497301E-05-1.63307124E-05 9.50331240E-07 1.72858671E-05
 8  2-1.89831667E-08 1.54635701E-04 2.24065420E-04 1.98981715E-07 5.14007877E-05
 8  3-1.14031924E-05-3.99975954E-05 8.41583055E-06 3.78054573E-08-8.50011143E-09
 8  4-3.58579097E-05-6.81547944E-05 2.26237166E-04 8.17195237E-06 2.52407220E-06
 8  5-1.27821634E-08 2.28060986E-05-1.66759672E-05 7.44715582E-09-1.39042309E-05
 8  6 4.28402158E-06 9.62020930E-06-4.30527702E-07 1.74108866E-08 1.32429626E-09
 8  7 2.44466548E-05 3.14911961E-05-5.60714633E-04 3.27831396E-05-1.37881521E-05
 8  8-3.93463039E-08-8.09333249E-05 5.01505132E-04 3.38510071E-07 1.27153238E-05
 8  9 3.59018573E-05-4.86171811E-05 5.92509066E-06-7.35044385E-09-1.03395668E-08
 8 10 5.87689334E-05 9.25896178E-05-8.90066172E-04-7.22578775E-06 2.00471384E-05
 8 11-1.07104829E-08 3.92291592E-04-4.64793892E-04 3.95130081E-08 7.09603547E-05
 8 12-7.69508904E-06-6.32652657E-05-6.70050397E-05-4.93170182E-08 5.21260657E-08
 8 13 1.00189912E+00 4.89802663E-03-1.25478647E-02 3.51672800E-04 5.35980186E-05
 8 14-4.29255825E-07-1.64276444E-03-6.23388178E-05 1.77567255E-06 2.31240355E-04
 8 15 1.28362735E-04-3.59603090E-04-2.70539534E-04-2.70515170E-08 1.18711157E-07
 8 16-3.46447365E-03-2.15833605E-04 3.18218646E-03 3.79764997E-05 2.22529273E-05
 8 17 1.00286686E-08-4.62643186E-04-1.69513704E-03-7.97755210E-07 4.44490868E-05
 8 18-2.90354479E-04 2.45905393E-04-1.93255675E-04 3.15835168E-08-3.26602668E-08
 8 19-1.26507592E-02-6.15063184E-04 4.48251082E-03 1.44581285E-04-7.44774965E-05
 8 20-8.41573515E-08-9.66376126E-04 2.24217428E-03 2.83554868E-07-2.35706801E-05
 8 21-2.44696132E-04 2.68266812E-04 3.18712208E-05 1.12374383E-07-2.98997362E-07
 8 22 2.65677001E-02 6.88760054E-05 7.45137492E-04-3.67904651E-05 2.58057433E-05
 8 23 7.15747153E-08 8.66100252E-04-3.64331177E-04-9.00223103E-07-2.30173041E-04
 8 24-8.41284853E-06 2.38585890E-04-1.65580617E-04-2.78985989E-07-1.41991815E-07
 8 25 3.12801564E-05 2.21292461E-05 6.59850062E-04-2.05880510E-05-1.80518799E-05
 8 26 3.18438276E-08-6.15393497E-04-3.56018815E-05 2.81792244E-07 4.74211073E-05
 8 27 1.84364912E-05-6.58575986E-05 2.52727269E-05-6.88198482E-08-1.56987406E-08
 8 28 1.53547282E-04 5.87391013E-04 5.62609660E-05 1.50823936E-04 8.60621280E-08
 8 29-8.34963280E-05 4.79814352E-05-1.07038164E-05 8.57029116E-06-6.07392719E-08
 8 30-1.06922151E-04 1.21157738E-05-2.03365190E-05-4.12082758E-05-9.31987861E-08
 8 31-1.02892449E-04 5.04973573E-04 7.32726860E-05 4.34384596E-05 4.01614116E-05
 8 32-1.02702401E-04 5.05543780E-04 7.31902185E-05 4.33933781E-05-4.00386531E-05
 8 33-4.56357488E-05-2.55618089E-04-1.68979973E-05 5.25363621E-05 1.33657514E-07
 9  1-4.37417341E-06-1.64802663E-05-3.02751697E-04-1.82510818E-05 4.61075022E-05
 9  2 9.52482646E-09 1.04705447E-04 1.53150229E-04 1.17567693E-08 8.74145517E-06
 9  3-2.44456575E-06-6.29688942E-06 1.04464514E-05 9.41745689E-09-4.08332863E-09
 9  4-1.45894121E-05-2.72471378E-05 8.50271986E-05-1.06356242E-06 1.09655046E-06
 9  5 3.12169667E-09-1.01205019E-05-1.83372622E-05-1.52828590E-08 3.49219578E-06
 9  6 1.19055000E-06-4.68274578E-06 2.53463619E-06-4.49003537E-09-4.88206147E-10
 9  7-7.79159737E-05-1.41364340E-04 6.32630080E-04 4.27894916E-05-3.86101420E-06
 9  8-2.85953510E-08-7.20689405E-04 1.69128030E-04 1.67299256E-07 1.96565209E-05
 9  9-1.11029487E-05-8.55357217E-06 4.94118202E-06 4.00820425E-08-1.09090865E-08
 9 10-3.40542464E-05-6.21354735E-05 1.60538740E-04 1.25390590E-05 8.33881323E-06
 9 11-8.03160402E-09-3.19492066E-04-2.96155496E-04 5.71687998E-09 7.98559179E-06
 9 12-1.07886379E-05 2.80304610E-06 2.19582747E-05 3.87522790E-08 1.60502402E-08
 9 13-2.66450475E-02 7.09608391E-06 6.09023812E-04-8.58635816E-05-5.91252165E-07
 9 14 1.98305444E-08-1.71682912E-03-7.65846413E-04-4.26427161E-07-3.76248190E-04
 9 15 1.09424737E-04 2.66823453E-04-1.22225937E-04-2.18288127E-07-7.88917539E-08
 9 16-1.14216151E-05-2.54545707E-04 7.37220771E-04 3.69812384E-05 2.40753188E-05
 9 17 1.50962591E-09-1.29549139E-03-8.42235436E-04-1.51465381E-07-1.72906533E-05
 9 18 1.34940633E-04-1.17649980E-04-8.36360785E-05 9.16968535E-08-1.18789127E-08
 9 19 2.60746558E-04-1.88987460E-04 6.26012248E-04 5.22277279E-05-1.10193197E-05
 9 20 1.64874952E-08-7.13145710E-04 4.15379482E-04 9.88455929E-08-7.19222553E-05
 9 21 2.18114964E-04-1.46192709E-04 3.29904502E-05 6.92118168E-08 2.24531666E-07
 9 22 1.00213667E+00 5.09774566E-03-1.00793935E-02 1.66099678E-04-2.25506768E-05
 9 23-5.29358129E-08-1.17036467E-03-3.94480834E-04-2.11847428E-07-1.49318176E-04
 9 24 8.46792949E-05 6.46388809E-05-2.86609626E-05-1.55660011E-07 1.29195563E-07
 9 25-1.99491699E-05-2.58704500E-05 6.81850864E-04-1.16559809E-05 8.58487262E-07
 9 26 8.70405811E-09-3.29335790E-04 1.35375972E-05 3.04581100E-07-1.73735223E-05
 9 27 5.69329110E-05-3.95593887E-05-1.04480526E-05-1.63576631E-08 2.01991433E-08
 9 28-2.01168841E-04-2.61529315E-05 5.48998512E-05-1.09674127E-04-4.28798120E-09
 9 29-3.64213906E-05 1.69699175E-04 3.08415719E-05-1.91183398E-05-2.33064746E-08
 9 30-1.07777354E-05 1.16408996E-04 1.10047256E-05 3.84112962E-05 2.19603910E-09
 9 31 2.05889720E-04 1.22340939E-03-1.04474165E-04 1.84495152E-04-3.26060517E-04
 9 32 2.05662091E-04 1.22332853E-03-1.04698607E-04 1.84232442E-04 3.26192712E-04
 9 33 7.39924029E-05 1.02406556E-03-5.41117044E-05-4.45448197E-04-2.52584749E-07
10  1-3.97496527E-03 1.33584147E-01 1.17004717E-01 3.39988792E-02-3.85452158E-02
10  2 3.32721541E-06 1.03811150E-02-9.55242943E-03-2.53482773E-07 1.09713926E-03
10  3 2.06646266E-03-3.16360193E-03-5.44599354E-03 5.39396485E-07-4.69843557E-07
10  4-9.69111100E-03 2.86813933E-01 2.62311145E-01-1.08965070E-01-2.20970750E-02
10  5 6.45602333E-05-2.90605514E-02-5.98959999E-03 1.88468375E-05 1.27685541E-02
10  6-6.04926112E-03-6.71929293E-03 4.48865478E-03-1.33300062E-05-2.66116198E-06
10  7-7.11298152E-03 1.46790413E-01 1.34155901E-01 1.20657617E-02-2.80673698E-02
10  8-3.74057961E-05-1.46891639E-03-2.97087669E-02-1.44031192E-05 8.87624060E-03
10  9-3.06054079E-03-5.81569981E-03-7.53760174E-03-5.74789498E-06 6.91699871E-06
10 10-6.54017697E-03 1.25777553E-01 1.21338490E-01 1.03329481E-02 3.84440034E-02
10 11-2.41968482E-05-8.33873028E-03 3.21924241E-02-2.18262744E-06 1.16075300E-03
10 12 3.99026676E-03-5.15101976E-03 7.55111556E-03-2.90056340E-07-5.31070290E-06
10 13-2.78250194E-03 3.03218120E-02 6.80759618E-02 1.40063720E-02 1.05387453E-02
10 14-1.17093737E-06 1.79961736E-02-3.74007732E-03-8.12407092E-06-8.57468002E-04
10 15 3.73505166E-03-2.87758366E-03-4.96773168E-04-7.34097831E-07 1.23128145E-06
10 16-5.76046940E-03 1.19579896E-01 2.23770095E-02-5.43702385E-03 4.48448564E-02
10 17-8.86920535E-06-9.53474262E-03 1.41227026E-02 2.19335872E-06 5.79916430E-03
10 18 3.53409690E-03-9.33326120E-03-1.09954764E-02-2.50609344E-07-1.43152926E-06
10 19-1.33538961E-03 4.61866306E-02-2.34359270E-02 2.26440452E-02 1.59773725E-02
10 20 2.39261257E-06 6.30238016E-03-3.24258690E-02-1.05068650E-05 3.38647178E-03
10 21-2.20062691E-03-1.18584487E-03 2.10858696E-03-3.59498680E-07-7.78188718E-07
10 22 7.08298671E-04 6.89398378E-03-4.69615307E-03 3.56047705E-03 1.52369457E-03
10 23 7.39013415E-07-3.57550638E-03 4.66995313E-04 2.87687140E-06 5.15254973E-04
10 24-2.71023800E-04-2.44231172E-04 4.06455195E-04 6.93406468E-07 6.89699737E-08
10 25-1.26077647E-02 2.49910057E-01 6.11107108E-02 9.22271087E-02 2.09054543E-02
10 26-5.60955178E-05 1.43282913E-02 4.42612959E-03-1.48165877E-05 2.73964553E-02
10 27-6.88216384E-03-2.05142915E-02 7.50816046E-03-3.10752040E-05-2.84218908E-06
10 28 6.48511431E-03-1.13046152E-02 8.24738070E-04 2.23552057E-03 6.33048761E-07
10 29 4.85444692E-02 2.60810899E-04-3.34388149E-03-9.95473744E-03 3.69111641E-06
10 30 4.20029185E-02 1.33033024E-03-5.70296494E-03 6.48910070E-03 6.50403798E-06
10 31 2.20655599E-03-1.12300149E-04 4.09798109E-04 6.95959304E-05 2.05190162E-04
10 32 2.20503745E-03-1.14050215E-04 4.10233106E-04 6.99100740E-05-2.05021346E-04
10 33 1.62192941E-03 1.18482390E-03 3.52098572E-04 2.33107560E-04 1.45417268E-08
11  1-1.18264950E-02 3.42071181E-01 3.26507188E-01 7.79586178E-02-9.70643343E-02
11  2 8.90574428E-06 2.09686600E-02-2.24195120E-02 2.96354804E-06 1.31630347E-03
11  3 6.21185580E-03-7.52815927E-03-1.25939718E-02 1.39007623E-06-1.65997849E-06
11  4 6.29372137E-03-1.68142608E-01-1.64390550E-01 5.98883885E-02 1.45216617E-02
11  5-3.54302833E-05 1.43389389E-02 4.24744105E-03-1.00736795E-05-6.71931807E-03
11  6 3.04851070E-03 3.67080737E-03-3.04899373E-03 7.20660450E-06 1.87778761E-06
11  7-2.32190099E-03 5.22678451E-02 4.47895758E-02-5.10734149E-02 1.26761610E-02
11  8 3.04081476E-06-2.93567968E-02 1.69424158E-03 2.96679730E-06 5.78571594E-03
11  9-3.56805950E-03-2.21765644E-03 6.40346670E-04 3.52276372E-06-1.05138429E-06
11 10 1.66272606E-03-4.38318836E-02-2.59391465E-02-1.23334041E-02-1.23693103E-02
11 11 1.15227681E-05-2.36560172E-03-8.10560356E-03-3.84084710E-07 5.16053271E-05
11 12-1.32644806E-03 1.27484273E-03-3.44533147E-03 7.08067956E-07 2.51363558E-06
11 13-1.56992150E-03 3.51512250E-02 2.30194993E-03 1.65722690E-03 2.68226832E-02
11 14 1.73278920E-06-1.15565550E-02 2.55755413E-03-2.42986885E-06-6.50305454E-03
11 15 9.45427802E-03-2.95122348E-03 6.68438390E-04-4.62214052E-07 1.54443193E-06
11 16-1.37101043E-02 2.17959613E-01 8.33584626E-02-8.42828799E-02 1.29956470E-01
11 17-1.56562572E-05-3.51399108E-03-1.01112949E-02-4.45476144E-06 3.37468709E-03
11 18 1.49929580E-02-1.83676451E-02-2.83057404E-02 2.30231168E-06-3.52634905E-06
11 19 7.96783064E-04-1.15636516E-03 4.38442725E-03-1.03951956E-02 3.84194023E-03
11 20 1.51555556E-06-2.38010384E-03 5.12462279E-03 1.78412295E-06-4.41285925E-03