 $SYSTEM MWORDS=2000 MEMDDI=250 $END
 $CONTRL MAXIT=200 SCFTYP=RHF RUNTYP=ENERGY ISPHER=1 UNITS=ANGS
  EXETYP=RUN COORD=UNIQUE ICHARG=0                   $END
 $BASIS gbasis=CCD                                   $END
 $SCF DIRSCF=.TRUE.                                  $END
 $SCF DIIS=.TRUE.                                    $END
 $SCF SOSCF=.FALSE.                                  $END
 $STATPT NSTEP=1000                                  $END
 $GUESS GUESS=MOREAD                                 $END
 $ELMOM IEMOM=0                                      $END
 $DATA
 nicotine HF/CCD local minima geometry
C1
N     7.0    -1.71510136    -0.74179548    -0.02220445
N     7.0     2.35404682    -0.57484376     1.18082225
C     6.0    -0.90769982     0.38785309    -0.45868301
C     6.0    -1.48844647     1.58049071     0.33916467
C     6.0    -2.88958621     1.11475170     0.78967625
C     6.0    -3.06834126    -0.23429784     0.09682354
C     6.0     0.57823038     0.17512073    -0.25149390
C     6.0    -1.60326910    -1.92361319    -0.84469485
C     6.0     1.51206148     0.56983244    -1.19637167
C     6.0     1.07243156    -0.39738035     0.92188758
C     6.0     2.86458755     0.39323041    -0.93634492
C     6.0     3.22989798    -0.18270534     0.26723188
H     1.0    -1.06993580     0.57442540    -1.53247344
H     1.0    -1.52301753     2.47631836    -0.28210238
H     1.0    -0.85827488     1.81109142     1.19713032
H     1.0    -2.91495132     0.98515612     1.87208915
H     1.0    -3.67780662     1.82013822     0.52523041
H     1.0    -3.69385982    -0.92872328     0.65940827
H     1.0    -3.53304648    -0.09966488    -0.89421844
H     1.0    -2.22261238    -2.71961546    -0.42870897
H     1.0    -0.57290524    -2.27728796    -0.86338735
H     1.0    -1.92532110    -1.74704635    -1.88343775
H     1.0     1.18982470     1.01113689    -2.13172722
H     1.0     0.37732449    -0.73525482     1.67924750
H     1.0     3.61713552     0.69143957    -1.65295887
H     1.0     4.27473545    -0.33945650     0.50679576
 $END
--- CLOSED SHELL ORBITALS --- GENERATED AT Wed Jun 24 03:19:23 2015
 nicotine HF/CCD local minima geometry
E(RHF)=     -495.7551017457, E(NUC)=  699.6282083319,   12 ITERS
 $VEC
 1  1 2.73312548E-05 2.13005456E-05-1.58260423E-04-1.06579536E-05 1.13988552E-06
 1  2-1.46983500E-05-4.61697765E-05-1.27926818E-04 3.84652228E-05-1.10302255E-05
 1  3-4.17419317E-06 1.52044187E-05-4.71569087E-06 1.72750272E-06 2.79169961E-06
 1  4 1.00204407E+00 3.51107281E-03-1.09131902E-02-6.54129339E-04 9.04238014E-04
 1  5-1.86214385E-03 1.15132623E-03-1.38530109E-03 2.84936051E-03 3.01485603E-04
 1  6-2.68201590E-04-3.32840123E-05 2.19444153E-05-1.16765801E-04-1.57725622E-04
 1  7-5.79425515E-05-1.05689434E-04-1.01514995E-03-2.73304914E-05 9.37789922E-06
 1  8-3.33357935E-05-6.51313879E-04 1.06132104E-04 3.15909480E-04 6.52787172E-05
 1  9-2.55655579E-06-6.27221614E-05 2.30377622E-05-3.95016837E-05 2.10980217E-05
 1 10 2.44130075E-05 4.03289315E-05-3.13608430E-04-5.18670482E-06 9.30346498E-06
 1 11 3.66640517E-06-7.20164406E-05 2.02347956E-04 9.85237993E-05-9.36043156E-06
 1 12-1.80008188E-05 2.73612504E-05 1.87748888E-05 4.78112288E-06 3.87303553E-06
 1 13-3.42939299E-07 1.19518385E-06 1.07160144E-04 4.36830111E-06 9.03697517E-08
 1 14-6.37578919E-06 1.31677573E-07-9.87001565E-05-4.30668981E-06-5.23578705E-06
 1 15 5.02637833E-06 2.09408714E-07 1.12487101E-06-1.25404912E-06-1.66263728E-06
 1 16 1.26048646E-05 2.40137486E-05-1.01706797E-04 1.14014909E-05 8.73283322E-07
 1 17 2.10927349E-06-3.95827812E-05-7.46302953E-05-1.00621436E-04 6.06111489E-06
 1 18-9.72851152E-06 3.66739663E-06-9.20003763E-06 8.64464980E-09 1.34119706E-06
 1 19 1.15134671E-04 1.75300478E-04-4.28561952E-03-2.29540262E-05 2.64293614E-05
 1 20-5.70373538E-05-4.04248273E-03 3.69690343E-04-4.28826276E-04-1.09386334E-04
 1 21 2.24025708E-05 8.69837633E-05 8.96639671E-05-1.63820766E-04-2.86584674E-05
 1 22-3.13286666E-06-4.55486391E-06 9.33203247E-05 2.84062295E-06 4.71702220E-06
 1 23 2.35136977E-07 1.04018096E-04-7.64075947E-05-5.09570440E-05 7.65886793E-06
 1 24 2.84300371E-06-1.05018716E-05-1.32883593E-05 1.58043427E-06-1.28193794E-05
 1 25-2.14428299E-04-3.74133809E-04 5.43541576E-03-3.90133473E-05 2.60352258E-05
 1 26-5.19699800E-05 1.06238428E-03-1.10321356E-03 2.30190490E-03-6.26375830E-05
 1 27-5.72228846E-05 1.19860468E-04-2.92871367E-05 6.07286485E-05-1.21245347E-04
 1 28 1.26892085E-04 8.64444158E-05 5.47919355E-03-5.87241829E-05 1.47908411E-05
 1 29-2.66274617E-05 2.89898224E-03 7.24831001E-04-1.82834998E-03-5.22550851E-04
 1 30 1.60382864E-04 3.62167987E-04 2.01864642E-04-3.57489905E-04-1.16398566E-04
 1 31 1.18132095E-04 1.85955790E-04-4.51723657E-03 1.05176781E-05 4.24693321E-05
 1 32-9.07655729E-05 2.54575168E-03 6.43549470E-04-1.61241378E-03 1.25284549E-04
 1 33-1.13957589E-05-1.13888790E-04-7.92523661E-05 1.59491745E-04 6.10688696E-05
 1 34 1.53162363E-04 1.33504430E-04 4.58221797E-03 1.58638294E-05 1.62839010E-05
 1 35-3.62565138E-05-2.94591457E-03 7.97704390E-05 8.63961297E-05 1.09246409E-04
 1 36 8.37441068E-05-1.92990516E-04-2.67633957E-04 5.74050271E-04 1.55471608E-04
 1 37 7.86800330E-05 1.11009341E-04-1.00856446E-05 2.78540048E-07 3.05965367E-05
 1 38 1.79840403E-05-1.45291336E-05 2.51752714E-06-1.21045415E-05-4.17157199E-06
 1 39 6.75074420E-06-8.54378937E-05 1.33331113E-05 1.92469336E-06 1.73784044E-05
 1 40-1.11053263E-05 1.51636436E-06 1.62142812E-06 4.34028007E-06-1.97811744E-07
 1 41 4.11400326E-06 1.43643870E-05-1.29782907E-07 9.00833047E-07-5.71707504E-07
 1 42 1.27728688E-05-5.11735695E-06 4.43902130E-06 4.26118546E-06 6.42109510E-06
 1 43-1.41630832E-05-4.77247509E-05-3.65010252E-06 2.86189897E-06-2.27284835E-06
 1 44-5.24194773E-06 1.09258165E-05-8.03852953E-06 3.34541219E-06 1.55258155E-06
 1 45-5.81378660E-07-2.15746049E-04 3.09316836E-05-1.28230779E-05 2.75853720E-07
 1 46-4.38212564E-06 1.08433962E-06-4.55018170E-06 6.24410256E-06 3.27968961E-06
 1 47-5.97933532E-05 6.36150795E-04-4.53370817E-05 4.59977770E-05-9.43096889E-05
 1 48-1.05399649E-04 7.56359294E-04-2.42024902E-04-2.32895666E-06 3.31545881E-05
 1 49-7.19158523E-05-7.90767995E-04-1.19217766E-04-3.82138206E-06 1.74174031E-05
 1 50-1.24933817E-04 6.26212022E-04 2.06448493E-04 3.91964943E-05-1.01288430E-04
 2  1 1.00199287E+00 3.48500103E-03-9.70102938E-03-4.67118955E-04 4.08782858E-04
 2  2-1.40540101E-03 4.81480849E-04-1.20710797E-03 2.03348896E-03-7.72976419E-05
 2  3-2.99982349E-05 1.07295877E-04-5.96295230E-05 7.07893645E-05 1.26078646E-05
 2  4-2.06829045E-05-1.13022267E-05 1.72149460E-04-8.84375039E-06 1.31541550E-07
 2  5-5.37406747E-06-7.13535887E-05 3.31051625E-05 1.54487256E-05 1.06489858E-05
 2  6-1.96327877E-06-8.68570700E-06-6.87677330E-06-2.20362967E-06 3.81741394E-06
 2  7-4.86742126E-05-1.18494202E-04 4.37258606E-03-1.60575582E-04-2.52814477E-04
 2  8 2.53686453E-05-7.14716912E-04-1.14001239E-03 1.57952469E-04 6.76135252E-05
 2  9-8.89454039E-05 2.13318787E-05-1.03097497E-04 1.06544360E-04 1.25181673E-04
 2 10 5.16437868E-06-5.06284149E-06-6.57745512E-04-8.25665317E-05 7.92632367E-05
 2 11 3.42539236E-05 2.46575694E-04 4.32911766E-04 1.30819177E-04 3.28364652E-05
 2 12 4.73631947E-05-8.01996599E-05 4.78759364E-05-4.03138439E-05-5.30787380E-05
 2 13-2.83935169E-05-6.09112748E-05-3.11449567E-04 9.75022237E-06 1.26058716E-04
 2 14-4.68505939E-06 9.96019621E-05 1.55290512E-04 4.31454416E-04 8.79056820E-05
 2 15 2.59328993E-06-9.04989719E-05-8.85597189E-05-3.22035647E-05-3.16375061E-05
 2 16 6.88374692E-05 8.35123303E-05 2.73751385E-03 2.61071292E-04-1.59327553E-04
 2 17-7.82452894E-05 9.33893070E-04 2.36556981E-04-5.18090569E-04-2.19811380E-04
 2 18 5.27876561E-05 1.67023724E-04 1.34928306E-04-6.92692430E-05 1.48966408E-07
 2 19 2.82766524E-05 2.63437336E-05-1.21070945E-03 6.55494248E-05-7.13853380E-06
 2 20-1.74433609E-05 7.64009893E-04-4.11694039E-05 7.08845353E-04-1.07277067E-04
 2 21 1.16542718E-04-9.26565119E-06-2.66432536E-07 2.39366231E-05-4.76704199E-05
 2 22 1.23254874E-04 1.75778146E-04 2.03399606E-03-2.50950649E-05 2.08760150E-04
 2 23 9.66269915E-05-2.42359391E-04 7.37288671E-04 1.50845753E-05 1.48959882E-04
 2 24-4.11920825E-05-1.07767799E-04-3.36054308E-05 3.44008037E-05-3.20497325E-04
 2 25-1.44864698E-05-1.98576889E-05 1.91789057E-04-1.55248608E-06-3.71218361E-05
 2 26 4.84686340E-06-7.81315131E-04-4.55630783E-05 1.55945715E-04 1.35338858E-05
 2 27 4.63551991E-06-1.81694057E-05 3.26063454E-05-1.85206844E-05-3.95238597E-05
 2 28 8.73830823E-06 7.37402175E-06-5.13754676E-04 8.05676879E-06 1.43337037E-05
 2 29 1.78419654E-05-1.35947846E-04-1.44766018E-04 9.50777164E-05-3.00140057E-05
 2 30 2.27575749E-05 7.25643087E-06-3.93190768E-06-2.35196258E-05 4.13507235E-06
 2 31-2.74239571E-07-1.23013131E-06 3.34563597E-04-7.23711862E-06 2.00241375E-06
 2 32 1.08539146E-05-1.75286324E-04 1.08545468E-04-2.93501166E-04-4.25370912E-06
 2 33 2.48036205E-06 1.77334707E-06 3.96718157E-06 1.38890151E-05 2.36098615E-06
 2 34-3.66756923E-06-7.25905313E-06 2.10727744E-04-4.87317302E-06 1.88589199E-06
 2 35-3.22221029E-06 2.94491392E-05 2.50084610E-05-6.74829019E-05-2.28779268E-06
 2 36 4.81100503E-06-2.52321235E-06 4.82498816E-06 1.03217969E-06-8.47247288E-07
 2 37-3.50915017E-04-3.95111485E-04 3.30664996E-05 3.62864831E-05-3.33848656E-05
 2 38 8.02189368E-06 5.35514117E-05-4.82983960E-05-4.38048783E-05-4.92191154E-05
 2 39 6.05398568E-05-1.65886064E-04-3.31654107E-05-2.05348735E-05 5.89152252E-06
 2 40-8.75752779E-07-1.98241943E-04 4.38054045E-06 2.40580643E-05-1.65757122E-05
 2 41-1.68369814E-05 1.39341299E-04-4.48839402E-06 6.79849739E-06-7.01233512E-05
 2 42-2.00187613E-04 1.11213601E-04-7.50221432E-05-3.02960886E-05 2.70407909E-05
 2 43-3.43483669E-04-3.18661483E-04-4.53930313E-05-3.85096740E-05-1.58669342E-05
 2 44-2.33859874E-04-1.12100559E-04-2.09412338E-05-7.89002501E-05 2.50204988E-05
 2 45-2.47373385E-04 1.96766156E-05 6.26332801E-05-4.11116830E-05-3.53825438E-07
 2 46-2.72455011E-04-3.17288762E-04-6.23724212E-07-2.24123558E-05-2.85765809E-05
 2 47-4.21007626E-05 7.60902272E-05 1.64862273E-05-1.10887704E-05 3.79624362E-06
 2 48-3.24316445E-05-4.03565149E-05 2.54237039E-05 6.47015407E-06 1.55655482E-05
 2 49-2.68959597E-05-4.90042384E-05 3.18529686E-06-9.06113628E-07 1.22401831E-05
 2 50-1.36415977E-05-4.46076262E-06-2.98210097E-06-1.09732909E-07 2.49755660E-07
 3  1-1.44053167E-05-2.40308423E-05 1.15158319E-04-4.52593287E-06 3.56138107E-06
 3  2 1.13952255E-05 8.82355480E-05 1.78715545E-06-1.37888123E-04-5.26245204E-06
 3  3 7.85914966E-06-2.59669762E-06 8.79770898E-06-8.39669833E-06-5.78667611E-06
 3  4 1.17317414E-04 7.67740519E-04-4.12517335E-03 1.73069075E-04 3.59741319E-05
 3  5-9.11177490E-05-1.16904189E-03-9.10221654E-04 2.02643122E-03-2.28058792E-04
 3  6 2.80489321E-04-5.24305293E-05-3.73588284E-05 1.43074682E-04 2.23513214E-04
 3  7-5.06804393E-06 2.10430183E-05-1.56681386E-03-2.20289146E-05 3.98437076E-06
 3  8-4.62977370E-06-7.17616297E-04 1.58450597E-04 3.26874384E-04-1.23537689E-05
 3  9-1.00569902E-05 2.24107591E-05-2.82946653E-05 3.85780762E-05-7.19503229E-06
 3 10 1.17421377E-05 1.92245069E-05-1.08520884E-04 1.14507706E-06-3.48303878E-06
 3 11-5.07037666E-06-5.44223421E-05 6.83838510E-05 8.96623326E-05-7.14103673E-06
 3 12-2.75961964E-06 9.90065637E-06 1.87572288E-06 3.55303398E-06 5.19228247E-06
 3 13 1.04162765E-05 1.68314663E-05-1.96421210E-05 4.68132887E-06-3.69668455E-06
 3 14 8.54294930E-07-7.78226561E-05 1.68132220E-05-1.16333885E-05-1.17029566E-06
 3 15 1.44059923E-07 1.02623574E-06-3.22247477E-06 3.78558979E-06-1.12485462E-06
 3 16 5.23234342E-06 7.32127226E-06 7.14723562E-06 3.18593630E-06 5.03749739E-06
 3 17-3.57612947E-07-2.48345785E-05-8.48523169E-05 5.11150288E-05-2.74155775E-06
 3 18 6.95052794E-07 2.04650496E-06-7.54417388E-06 1.59921926E-05-3.90765962E-06
 3 19-3.12229618E-04 2.31617939E-04-4.14610553E-03 3.99535076E-06-7.25929474E-06
 3 20 1.76260575E-05-3.32527009E-03 1.39513666E-03-2.74290744E-03 1.26786390E-05
 3 21 4.90910386E-05-6.17696777E-05 2.42352214E-05-3.34313328E-05 8.08338102E-05
 3 22-8.31361098E-06-8.99566263E-06-1.40330495E-05 1.18516621E-06-1.00270801E-05
 3 23-5.33233022E-06 2.02139270E-05-7.18464073E-05-2.50432072E-05 6.21660280E-06
 3 24-1.07762334E-05 4.55963060E-06-2.90958044E-06-3.09101546E-06-7.11683220E-06
 3 25 5.59640643E-04-1.88259389E-04 4.43127086E-03 2.98386063E-05-1.23698756E-05
 3 26 2.35928063E-05 2.95712475E-03-8.12741071E-04 1.51006467E-03 9.46846933E-05
 3 27-1.30572905E-04 3.58882119E-05-5.27196644E-05 8.76923432E-05-1.15626159E-04
 3 28-3.67684687E-03-2.80751070E-04 4.97084058E-03 6.60365710E-05-1.55559156E-06
 3 29-5.18521152E-06 8.00337238E-04 1.62502818E-03-3.49606129E-03 2.22354895E-04
 3 30-1.84500789E-04-3.78541058E-05 2.65280806E-06-4.97261388E-05-1.00002788E-04
 3 31 2.16398888E-02 2.42164548E-05-2.12495438E-03-6.43049745E-05 3.50716992E-05
 3 32-6.85353368E-05 3.42087295E-03-4.58849133E-04 6.76615730E-04-2.08675673E-04
 3 33 3.25371071E-04-1.16695398E-04 3.38102742E-05-3.70814256E-06 3.05319182E-04
 3 34 1.00182641E+00 4.32942910E-03-4.39090331E-03-3.70569084E-04-1.85199467E-04
 3 35 4.12763521E-04-1.64025923E-03-9.28291686E-04 2.14456634E-03 3.71579877E-04
 3 36-6.16045217E-04 2.44465340E-04 4.78571519E-06-1.37912624E-04-5.86775805E-04
 3 37 2.57976233E-05 1.59562403E-04-6.01326432E-06 1.62294597E-06-1.01188233E-05
 3 38 1.39458925E-05-1.14214451E-05 3.94253864E-06-3.31138008E-06-4.63233590E-06
 3 39 3.82422536E-06-6.06264834E-05 1.09378007E-05 1.26185785E-06 1.64991688E-06
 3 40 1.63406100E-05-2.69455166E-05 4.63060280E-06-1.29271774E-06 5.40163660E-06
 3 41-1.20634848E-05-2.85469376E-05-1.49157647E-06 1.37030455E-06-2.50851341E-06
 3 42-9.89609358E-06-4.11950167E-05 2.18367620E-06 3.00922350E-06-9.58365720E-07
 3 43 1.29762252E-06-7.49442306E-07-3.99374990E-06 3.91962846E-06-6.54137786E-06
 3 44-1.87212491E-07-8.38495787E-06-1.67298916E-06 3.42279632E-06 2.65783036E-06
 3 45 8.06479397E-06-7.70553476E-05 1.16925399E-05-1.36893212E-06 5.81013798E-08
 3 46 3.66821531E-06-1.02904467E-05-9.98640622E-07 4.61622424E-06-2.10271576E-06
 3 47-5.86186632E-06 6.39926095E-04-7.61786706E-05 3.37059057E-05-6.57950896E-05
 3 48 1.45217929E-04 1.06645650E-03 8.48327518E-06-5.74322156E-05 1.22124414E-04
 3 49 2.10099952E-05-3.52206280E-04-1.73322874E-04-4.14664792E-05 1.05939654E-04
 3 50-3.54422852E-04 1.28204572E-03 5.66805113E-04-1.11928267E-05-2.84188536E-05
 4  1-5.75202865E-05 1.85316019E-04 1.62249197E-03 1.13063883E-04 1.38833917E-04
 4  2-1.25438351E-04 9.27979964E-04 9.27209506E-04 5.29790409E-04 3.59845679E-05
 4  3-9.68740865E-05 6.08895186E-05-7.18082448E-05 7.84535265E-05 9.29038707E-05
 4  4-6.92481711E-05-1.27131208E-04 3.58997915E-04 2.58922821E-05 8.40058729E-06
 4  5-1.99138502E-06-6.30034502E-04-1.03581821E-04 2.25815279E-04 4.59881688E-05
 4  6-1.48333757E-05-3.11547931E-05-1.27211483E-05 1.39987773E-05 1.26014350E-05
 4  7 1.00292371E+00 5.92572683E-03-1.66057007E-02-6.55714377E-05-3.18211291E-04
 4  8 1.11508879E-04-1.00954398E-03 7.69259996E-04-3.08787447E-03-1.15648961E-04
 4  9-1.25226313E-04 2.40875274E-04 2.65199573E-06 4.83199802E-05-4.14060370E-05
 4 10 7.42954812E-03-2.07742852E-04 4.83322352E-03 1.17956181E-04-1.90261885E-04
 4 11-1.79316011E-04 6.30713580E-04-1.90670054E-03 1.61621272E-05 5.65806124E-05
 4 12-4.22715598E-05-1.43090526E-05 1.21784177E-05 8.74524819E-05-2.01638036E-04
 4 13-4.13010550E-05 6.30068162E-05-1.64454944E-03-7.95048923E-05-1.58015218E-05
 4 14 8.83503849E-06-4.06402444E-04 3.69295898E-04 4.71454785E-04-9.77670658E-06
 4 15 4.04723499E-05-3.06956434E-05-8.31005076E-05-7.93287066E-05 1.80625047E-05
 4 16-8.48164504E-04-2.91326284E-04 1.62990914E-03-1.47293734E-05-2.80726101E-05
 4 17 2.41507708E-05 5.84279290E-04 6.63547357E-04-2.05662423E-04 2.29340450E-05
 4 18 1.58606221E-05-3.87946670E-05 7.80059294E-05-1.32990763E-04-2.42297764E-05
 4 19 1.24859516E-02 1.71144182E-04 1.06647232E-03-1.42912092E-04 3.83781781E-05
 4 20-4.73245254E-05-4.84042065E-03 1.37215676E-05 7.15682523E-04-1.77043622E-04
 4 21 1.11821188E-04 6.52224348E-05 4.25829422E-05-9.11958845E-05 3.08154294E-05
 4 22-6.29478547E-04-2.79633892E-04 1.37018039E-03-4.51380158E-05-1.44393970E-05
 4 23 7.82096845E-05 1.44443867E-04 8.91169396E-04-3.36247529E-04-5.96216868E-05
 4 24 1.30021785E-04-7.04000986E-05 1.04265362E-04-3.75915682E-05-2.56581679E-05
 4 25-1.41354441E-04-2.91959700E-04 3.01782424E-03 4.24498357E-05 2.62065897E-06
 4 26-1.72940390E-05-6.35299553E-04-6.33833339E-04 1.46814334E-03-2.54761398E-05
 4 27-8.73800621E-05 1.12856202E-04-3.98898457E-05 4.17016461E-05-1.45089677E-04
 4 28 7.14978316E-04-2.64337702E-04 4.92963804E-04 7.52581188E-05-2.42375532E-05
 4 29 1.94047549E-05-5.98909819E-04 5.12942870E-04-9.62262431E-04-3.75617462E-06
 4 30-9.04635075E-05 9.42196822E-05 4.19130492E-05-1.44689661E-04-1.25698665E-04
 4 31-1.88547006E-05-9.11976167E-05-5.92965235E-04 2.95186747E-05 9.31287052E-06
 4 32-7.72671684E-06 2.25384323E-05 2.23973689E-04-5.35576970E-04 1.48888576E-05
 4 33-6.26489339E-06-8.62396422E-06-9.50968444E-06 1.84231745E-05-3.33573022E-06
 4 34-3.27008916E-05-1.00823074E-04 1.18398860E-03 9.69491887E-06-4.41133973E-06
 4 35 1.52619753E-05-5.59448178E-04 5.89157335E-05-6.21413919E-05 2.86505417E-05
 4 36-5.13959914E-05 2.27454497E-05-4.27052623E-06 1.25614608E-07-4.93883435E-05
 4 37 2.72578339E-04 5.03216581E-04-8.94311129E-05 3.46378082E-05-3.48313729E-04
 4 38-2.24754255E-04 3.58666324E-04 1.03333760E-05 3.02572482E-05-3.00687566E-05
 4 39-3.75053566E-04-4.18382625E-04 4.32214918E-05 2.06905309E-05-2.76998352E-05
 4 40 5.84303282E-05-1.21590996E-04-9.47894680E-06-2.69331641E-05-6.61095753E-06
 4 41 5.34656988E-05 3.45856331E-05 2.23751668E-05-6.29067305E-06-5.60886042E-05
 4 42-5.13174763E-05 2.10977878E-04-2.80289330E-05-5.80183095E-05 1.16503407E-05
 4 43-1.19781153E-04-1.79666340E-04-4.11399195E-05-4.07577251E-05 4.22887232E-05
 4 44-4.76613778E-05 3.66508456E-04-4.76755944E-06-2.38554748E-05 5.31841547E-05
 4 45-7.21227775E-05-1.55430603E-04-4.14832157E-05-7.43964240E-05 4.32040170E-05
 4 46-2.10666604E-04-4.10934551E-04-4.21432809E-05-5.80702957E-05-3.37078225E-06
 4 47-1.42547740E-04 1.93555548E-04 5.31020076E-05 4.82952043E-05-1.09964612E-04
 4 48-2.01264172E-04 3.02674304E-04-2.70766346E-07-3.56185081E-05 8.43776563E-05
 4 49-2.08193756E-05-1.67582287E-05-8.45724006E-06-1.08979715E-05 2.98379854E-05
 4 50-1.31985837E-05 1.68486422E-04 1.06058972E-05 1.42352876E-07-2.87930118E-06
 5  1-2.51573609E-06-1.83078590E-05-1.41872633E-04-7.86341249E-05 2.76845096E-06
 5  2-2.22625104E-05 4.79268826E-04 2.17972965E-04 3.41847092E-05-1.95009871E-05
 5  3 7.30404329E-06 1.21969438E-05 2.46110320E-05-1.27746019E-05-3.20453287E-05
 5  4 9.18314070E-05 7.45061459E-04-4.16929697E-03-1.78960404E-04-7.07530191E-06
 5  5 3.35257484E-05 2.41477873E-03-4.89003497E-04 8.10087043E-04-3.29743243E-04
 5  6 2.89978904E-04 3.97643388E-05 3.04584928E-05 9.18174293E-06 1.77405976E-04
 5  7-1.19086410E-03-6.09158017E-05-1.31247339E-03 1.37115547E-05 2.16121302E-05
 5  8-6.41243799E-05 4.85745774E-04 5.48054905E-05-5.67821307E-04 1.21112818E-04
 5  9-1.24777219E-04 3.66440090E-06-9.01817252E-06 4.37899742E-05-6.24024629E-05
 5 10-9.72221728E-05-7.44612866E-05 5.06204676E-04-4.49666046E-05 5.83703456E-06
 5 11-2.62093426E-05-1.03305765E-04-6.95882756E-04-1.91684815E-04-2.71765291E-05
 5 12 1.63763407E-05 1.08001884E-05-8.71333746E-06-4.55492738E-05 6.67851596E-05
 5 13 6.83641987E-05 9.29441200E-05-6.50205877E-04 2.00747969E-05-1.93664670E-06
 5 14 1.01467962E-05-3.26874240E-04 3.80587266E-04 1.65691142E-04 2.07291474E-07
 5 15 1.04955968E-05-1.07028883E-05-8.89143869E-06-6.38662621E-06-1.79599362E-05
 5 16 1.77608728E-06-5.49771608E-05 8.26256785E-04 4.37040542E-05-2.07980883E-05
 5 17-2.67647091E-06 3.33138411E-04 2.08557498E-04 9.35924968E-05 1.33793927E-05
 5 18-6.31943215E-07-1.27474495E-05-1.82019090E-05-1.08118125E-05 8.65299895E-06
 5 19 2.38892347E-02 2.40240887E-04-2.29493445E-03-1.26653829E-05 2.86354277E-05
 5 20-9.26494779E-05-2.77309559E-03-1.17298549E-03 2.93588872E-03-1.48699077E-04
 5 21 3.11029221E-04-1.62330145E-04 9.33922869E-06 4.84009121E-05 3.29310333E-04
 5 22-3.95810895E-05 1.47907550E-05-2.42990071E-04-2.50065421E-05-6.54240261E-06
 5 23-1.00075382E-05-3.31614135E-04 2.31544133E-04 1.83019064E-04-3.82180422E-05
 5 24 2.94927233E-05 8.72531889E-06-6.17703572E-05-4.48683137E-05 3.39892088E-05
 5 25 9.32794671E-04-2.56131257E-04 5.73830854E-03-4.13028979E-05-2.66565782E-05
 5 26 5.83375304E-05-9.32730186E-04-1.28160240E-03 2.84306874E-03 8.02639370E-05
 5 27-1.54899516E-04 7.46355792E-05 1.65063740E-05-6.52344079E-05-1.56683535E-04
 5 28 1.00184567E+00 4.45776167E-03-4.65596855E-03 5.73361407E-04-6.58510868E-05
 5 29 4.33311530E-05 3.24395089E-03-6.73602715E-04 1.15373951E-03 5.64487611E-04
 5 30-6.18522691E-04 5.40350797E-05-1.22215632E-04 1.16874273E-04-4.86630027E-04
 5 31-1.38142866E-04 2.54602140E-04-4.86532038E-03 3.92796353E-05 1.80678818E-06
 5 32-4.83192677E-06 1.00170306E-03 1.23584714E-03-2.75231232E-03-5.45111991E-05
 5 33 8.10379278E-05-2.65267288E-05 2.15804757E-05-2.78679636E-05 7.53271810E-05
 5 34 3.35935438E-03-2.18603756E-04 3.81940705E-03-4.88692267E-05-1.78445572E-05
 5 35 4.16307808E-05-2.47293823E-03 1.11263269E-03-2.15697036E-03 1.76432343E-04
 5 36-1.63010608E-04-1.34217349E-05 3.49098806E-05-1.11111384E-04-9.40995784E-05
 5 37 4.10526021E-05-1.37822790E-04 7.62066491E-06-1.54898468E-05-2.33584191E-07
 5 38 6.73633965E-05 1.20353782E-04-1.02305155E-05 9.31775301E-06 3.92816567E-05
 5 39-1.09094068E-04 5.25969801E-04-2.65198909E-05 5.50009202E-06-5.28935187E-05
 5 40 7.52313439E-05-1.40276453E-04 1.42023499E-05-2.31723417E-05 7.64644144E-06
 5 41-3.38841838E-05-1.21140715E-04 2.46117129E-07-2.98922738E-06-1.79078156E-05
 5 42-1.88265583E-05 5.50715512E-05-7.20176917E-06-3.78553340E-06-1.10492772E-05
 5 43-3.56260424E-05 1.41016560E-05-1.33378532E-05-8.09798975E-06 1.90532772E-06
 5 44 4.42179000E-05-8.80158170E-05 1.53263256E-05-3.71669051E-06-2.76081881E-05
 5 45-4.51701708E-05 6.03770408E-04-4.47919725E-05 2.60276386E-05 4.88209541E-06
 5 46 4.06817548E-05 2.25256963E-05 1.68314543E-05-2.41020822E-05 7.96215754E-06
 5 47-2.06748643E-05 6.32833273E-04 8.31040367E-06 3.95074424E-05-8.85324216E-05
 5 48-1.85022379E-04 1.17475812E-03-4.59251607E-04-1.00661564E-04 2.44965012E-04
 5 49-7.00205920E-05-7.21181180E-04-1.03950256E-05-3.41796623E-05 7.32569101E-05
 5 50 1.57578606E-04 9.47614159E-04 6.47798739E-05-5.16376722E-05 1.03812170E-04
 6  1 2.54889817E-05 4.39711484E-05-4.33179518E-04-1.24160347E-05 1.08319241E-05
 6  2 3.28478831E-06-7.87035919E-06-2.68967660E-04 7.00784505E-06 1.48612767E-05
 6  3-2.55991028E-05 1.07378261E-05-4.50092537E-06-2.21683099E-06-4.49886879E-06
 6  4 4.57883860E-06-8.85175532E-06-5.06073956E-05 1.19558213E-05-1.28648843E-06
 6  5 4.58350016E-06 9.11568145E-05-9.58678544E-05 1.83154972E-04-6.95407788E-06
 6  6 1.05924566E-05-3.63837868E-06 6.79981487E-06-1.11275020E-05 1.16704721E-05
 6  7-7.14401331E-04-1.85332894E-04 1.68910903E-03 4.13210775E-05-2.26790916E-05
 6  8-3.02638149E-06 8.21569657E-04-6.52108965E-04 5.46546689E-04 1.23718131E-04
 6  9-9.21579565E-05-3.15601741E-05 1.16483618E-05-2.82906686E-06-6.17831832E-05
 6 10-3.55876031E-05-1.36499121E-05-1.24672575E-04-1.88368357E-05 6.77853698E-06
 6 11 2.03275957E-05 2.46263327E-04 1.77502591E-05-4.16255009E-04-2.89936818E-05
 6 12 3.20387233E-06 2.57898095E-05-3.55879334E-05 7.65674686E-06 2.95661548E-05
 6 13-9.92759063E-06-1.67768457E-05 1.39528769E-04 1.95973619E-05 1.11879494E-05
 6 14-6.39228044E-06 1.96264873E-04 1.81473183E-04 1.14056627E-04 2.96856193E-05
 6 15-1.29698714E-05-1.67157479E-05 1.65022351E-05-8.21945838E-06-9.56917444E-06
 6 16-5.81749997E-05-2.59640862E-05 3.18585660E-04 1.94634378E-05-1.47942197E-05
 6 17 4.09281865E-06 1.21510058E-04 2.46145557E-04-4.72037578E-05 1.22688305E-05
 6 18-1.27443481E-05 4.75517603E-07 6.80112688E-06-1.52092462E-06 6.09482854E-07
 6 19 4.61597867E-02 5.28485404E-05 1.04114758E-03-1.02069523E-04-1.66778082E-05
 6 20 4.36012338E-05 2.59305191E-03 6.06323871E-04-1.51771730E-03-1.94800351E-04
 6 21 2.56041755E-04-6.12414040E-05 2.17576658E-05 1.06807792E-05 2.11265615E-04
 6 22-6.77676833E-06 3.69406556E-05-3.57236748E-04-1.74620485E-06-4.35378174E-06
 6 23-7.75789181E-06-2.02016513E-04 6.88380462E-05-5.71097632E-05-2.42541588E-05
 6 24 3.06554065E-06 2.11886181E-05-1.86121728E-05 1.07840978E-05 1.54801566E-05
 6 25 1.00027498E+00 4.51022509E-03-1.05668520E-02 1.13781901E-05 5.40617731E-05
 6 26-9.61095582E-05-3.55884895E-04 8.89156409E-04-1.88676707E-03 2.10769064E-04
 6 27-4.18859650E-04 2.08090586E-04-7.41905493E-05 7.52784530E-05-4.25589207E-04
 6 28-2.26665947E-03-9.89702256E-05 9.69904599E-04-8.89780758E-06 1.12308471E-05
 6 29-2.98606983E-05-3.99931426E-04 2.17185749E-04-3.97408644E-04 2.66082572E-05
 6 30-7.43208748E-05 4.77126177E-05-9.63206261E-06 1.68994954E-06-8.49181467E-05
 6 31 4.01431135E-02-1.37474238E-04 1.97971657E-03 5.48827356E-05 4.97913163E-07
 6 32-4.43145289E-06-1.51578887E-03 2.55859900E-05 7.32479542E-05-2.28701503E-04
 6 33 2.55467656E-04-2.67661530E-05 1.98195387E-05 2.18107941E-05 1.88969402E-04
 6 34-1.61265175E-03-8.24045140E-05 3.49910425E-04-9.49041176E-06-5.64561984E-06
 6 35 1.34854968E-05-8.52574143E-05 1.48795873E-04-3.09409965E-04 6.20733115E-05
 6 36-7.23539025E-05 1.02805911E-05-3.29514497E-05 5.54131726E-05-6.00912166E-05
 6 37-8.21225160E-06 1.07650296E-04-2.69866589E-05 1.75029432E-05 6.03794497E-06
 6 38-4.11988890E-05-5.70025256E-05-2.61934489E-05 2.35343163E-06 1.72898200E-05
 6 39 7.45383245E-06 1.71032950E-04-2.17659938E-05-7.90010288E-06 1.30523710E-05
 6 40-1.36111175E-05-4.71931665E-05 8.88881178E-08-5.87540592E-06-4.03797235E-06
 6 41-4.27939288E-06 9.29236137E-06-5.09384488E-06-4.87188659E-06-5.98454896E-06
 6 42 1.37772265E-05 9.90197454E-05 1.80996731E-06-4.17267612E-06-1.80203991E-06
 6 43-4.47680383E-05 1.12065889E-09 3.70818181E-07-1.07314987E-05-1.76200652E-06
 6 44 4.72764554E-05-8.46377712E-06 1.98484279E-05 2.09434653E-06-6.11082034E-06
 6 45 1.77483236E-05 3.51970909E-04-4.09476549E-05 2.04409558E-05 7.08096952E-06
 6 46 1.11260075E-06-6.26376910E-05 5.90670460E-06-5.95620322E-06-9.76770429E-06
 6 47-5.06158126E-04 7.32831162E-04-1.71498928E-04 2.22323979E-04-4.74403273E-04
 6 48-4.58485710E-05 1.87812037E-05-1.14663013E-05-3.55374594E-06 2.60478702E-06
 6 49 1.32684043E-04 3.88012967E-04-7.43480462E-05-3.55826488E-05 8.42623139E-05
 6 50-4.20601120E-05 1.24059375E-04 2.13556920E-05 6.63507708E-07-4.00080060E-06
 7  1 1.15993259E-04 4.84392015E-04-6.66053748E-04-2.37923315E-04 1.22111417E-04
 7  2-3.04898017E-05-1.78994838E-04-7.90756260E-04 6.54953119E-04-1.53185793E-04
 7  3-2.55237288E-05 1.78709521E-04 9.34003652E-05 4.17218821E-05 1.98576782E-05
 7  4 1.79774374E-05 3.18189361E-05-2.90656769E-04 2.35979864E-07 2.21855976E-06
 7  5 6.36762597E-06 3.18916743E-04-2.88706369E-05-3.07664586E-05-1.02711626E-05
 7  6-2.07849201E-07 1.04790118E-05 9.51947392E-06-1.35444412E-05-3.98658078E-06
 7  7 4.58129738E-04-3.75039836E-04 1.58096982E-03 5.09787053E-05-7.64257417E-05
 7  8 1.39843021E-05-4.02474234E-03 2.38391235E-04 6.69178127E-04 8.52771792E-05
 7  9 3.32413837E-06-8.86013176E-05 1.22078934E-04-5.78587507E-05-2.02105731E-06
 7 10-1.24672039E-05 9.12958065E-05-2.45829583E-03 8.26689069E-06 5.73375960E-05
 7 11-1.69677954E-06 6.67010287E-04 9.57938179E-04 6.15065544E-04 4.70624705E-05
 7 12 4.18454386E-05-8.89079091E-05 3.87223237E-05-1.68633675E-05 8.65238856E-06
 7 13 1.19904276E-02-1.27958889E-04 4.06433552E-03-2.58080766E-05-1.49206488E-04
 7 14-8.18689424E-05 3.65282136E-04-1.15592855E-03-1.18306097E-03 6.23114359E-05
 7 15-1.55022224E-04 9.27107880E-05-5.30429556E-05 5.95111046E-05-1.50051804E-04
 7 16 1.00260070E+00 5.34394801E-03-1.13192108E-02 3.96631195E-04-1.80239245E-04
 7 17-2.21613971E-04-1.57083744E-03-1.60508709E-03 3.58984960E-04 3.51050011E-05
 7 18-1.37210312E-04 1.02105311E-04 1.42815090E-04-2.05033058E-05-1.60944960E-04
 7 19 7.11179436E-05-1.03337429E-04 1.75377228E-03 2.25109185E-06-3.41801656E-05
 7 20 2.21703842E-05-1.69772029E-03 5.69616666E-04-9.63778463E-04 4.24007845E-05
 7 21-1.81774042E-05-2.42233802E-05 2.51655071E-05-3.83608265E-06 9.30443853E-06
 7 22-2.88051155E-03-2.89482225E-04 8.13785439E-04 6.66414629E-05-1.44466304E-05
 7 23 9.27224881E-06-6.54683334E-04 5.48312131E-04-2.65262917E-04 7.63100504E-05
 7 24 4.88116581E-05-1.25121709E-04-1.62825057E-04-3.51030428E-05 3.53274411E-05
 7 25 4.45409106E-05 9.57994701E-06-8.66351494E-04 3.43833244E-05-2.41826460E-06
 7 26-7.15105850E-06-4.09822468E-04 1.42115013E-05-1.16397617E-05-4.10441984E-05
 7 27 1.70871390E-05 2.39570595E-05 8.43516912E-06-7.84413292E-06-1.84591839E-05
 7 28-6.55041295E-05-3.22720872E-05 1.28266323E-03-1.70519923E-05-1.29096815E-05
 7 29-1.29425706E-05 5.69445357E-04 2.06487550E-04-3.72642506E-04 2.45347235E-05
 7 30-3.43981319E-05 9.86340847E-06-2.75966161E-06-5.33102803E-06-1.91584972E-05
 7 31-4.86200081E-05-7.76608087E-05 8.22868971E-04-1.04694631E-05 6.79594086E-06
 7 32-1.06142495E-05-6.22929372E-04-1.34073559E-05 7.67632428E-05 3.64275778E-05
 7 33-3.56525495E-05-7.75028286E-07-2.84755289E-06-1.01491720E-06-2.37645208E-05
 7 34-3.62469887E-07-4.22774952E-07-3.10570712E-04 4.64600788E-07-5.93225529E-06
 7 35 1.58062673E-05 2.69818958E-04 6.32645840E-05-1.45765644E-04 6.96753668E-06
 7 36 2.91625699E-06-9.88379366E-06-1.21683271E-06 2.12056383E-06 1.35666896E-05
 7 37-1.96689122E-04-1.89317245E-04 2.00134984E-04-7.52085573E-06-1.54742530E-05
 7 38 1.32059966E-04-1.55909694E-05-2.68822003E-05-3.92085723E-05-3.61122303E-05
 7 39 5.14055355E-05-2.91139133E-04-2.15641184E-05-4.74106732E-05 1.89346287E-06
 7 40-2.34292141E-04 3.58035220E-04-3.27427814E-05-4.70278981E-05-8.21874387E-06
 7 41-2.59296755E-04 8.32594713E-05-2.37924120E-05-6.76583340E-06 2.83025394E-05
 7 42 8.48936501E-06 6.11587678E-04-1.67950168E-04-2.51162647E-04 2.71295509E-04