 $SYSTEM MWORDS=1200 MEMDDI=141 $END
 $CONTRL MAXIT=200 SCFTYP=RHF RUNTYP=ENERGY ISPHER=1 UNITS=ANGS
  EXETYP=RUN COORD=UNIQUE ICHARG=0                   $END
 $BASIS gbasis=CCD                                   $END
 $SCF DIRSCF=.TRUE.                                  $END
 $SCF DIIS=.TRUE.                                    $END
 $SCF SOSCF=.FALSE.                                  $END
 $STATPT NSTEP=1000                                  $END
 $GUESS GUESS=MOREAD                                 $END
 $ELMOM IEMOM=0                                      $END
 $DATA
 sodium-glutamate HF/CCD local minima geometry
C1
Na    11.0     7.54741001     2.80038881    -0.00000000
O     8.0     6.16066551     1.15978789    -0.00000000
O     8.0     5.39975405     3.25727296    -0.00000000
O     8.0     1.32321048    -3.44483566    -0.00000000
O     8.0     3.47295117    -2.90032482    -0.00000000
N     7.0     2.60912490     2.20026827    -0.00000000
C     6.0     3.53928280    -0.01976185     0.00000000
C     6.0     3.72873926     1.37394440    -0.00000000
C     6.0     1.77529728    -1.24523616     0.00000000
C     6.0     4.96806860     1.90851080     0.00000000
C     6.0     2.31765795    -2.51666307     0.00000000
H     1.0     4.16603279    -0.88172776    -0.00000000
H     1.0     5.95001030     0.23651522     0.00000000
H     1.0     4.66789532     3.85085297    -0.00000000
H     1.0     2.36562014    -0.18025242     0.00000000
H     1.0     0.77439511    -0.86325520    -0.00000000
H     1.0     1.69921434     1.80365038     0.00000000
H     1.0     2.66709566     3.18922830    -0.00000000
H     1.0     1.77517378    -4.27836227     0.00000000
 $END
--- CLOSED SHELL ORBITALS --- GENERATED AT Wed Jun 24 03:22:04 2015
 sodium-glutamate HF/CCD local minima geometry
E(RHF)=     -709.5252172720, E(NUC)=  618.7088049847,   12 ITERS
 $VEC
 1  1 9.99988460E-01-5.76364287E-05-2.64120188E-04 2.51278335E-04 1.17254593E-04
 1  2 4.41067658E-05 0.00000000E+00 3.22010126E-04 1.09503355E-04 0.00000000E+00
 1  3-5.15904943E-05-1.71474330E-05 0.00000000E+00-1.71905856E-04 4.07750791E-05
 1  4 1.31130777E-04-9.57530223E-05 0.00000000E+00 0.00000000E+00 1.35871434E-05
 1  5 2.32946776E-06-1.59166111E-05 7.41341147E-06 0.00000000E+00 0.00000000E+00
 1  6 1.41999227E-05 2.75359432E-05-1.18360406E-04 1.60395454E-07 1.67223183E-05
 1  7 0.00000000E+00 9.68043607E-05-2.09579439E-04 0.00000000E+00-7.59509125E-06
 1  8 1.01623460E-05-2.56725472E-06 1.72070866E-05 0.00000000E+00 0.00000000E+00
 1  9 1.42648352E-05 2.73041206E-05-1.32004061E-04 7.66731921E-06-1.33742247E-05
 1 10 0.00000000E+00-3.99300526E-05 2.26240533E-04 0.00000000E+00 1.50786106E-05
 1 11-1.15673219E-05-3.51128876E-06-1.32183007E-05 0.00000000E+00 0.00000000E+00
 1 12-1.48099213E-07-2.62229681E-07 1.89382014E-06-2.20422383E-07 5.56559336E-08
 1 13 0.00000000E+00 1.25216389E-06-9.47600611E-07 0.00000000E+00-1.32514041E-07
 1 14 1.68480093E-07-3.59660524E-08 4.16943198E-08 0.00000000E+00 0.00000000E+00
 1 15-7.17146088E-07-1.37952153E-06 1.45095236E-06-2.55369625E-07-7.43350466E-07
 1 16 0.00000000E+00 1.74966995E-06 2.96381685E-06 0.00000000E+00-8.16808784E-08
 1 17 5.28355848E-07-4.46674970E-07 1.11895740E-07 0.00000000E+00 0.00000000E+00
 1 18-4.76071241E-06-8.59478433E-06 2.34738641E-05-1.56876958E-06 1.91012995E-06
 1 19 0.00000000E+00-1.43743849E-05-2.34817676E-06 0.00000000E+00 4.95759942E-07
 1 20 3.50592902E-06-4.00168896E-06 3.89515934E-07 0.00000000E+00 0.00000000E+00
 1 21-5.41255011E-06-8.70077719E-06 7.27604818E-05 1.54491754E-07-2.19712219E-06
 1 22 0.00000000E+00-3.66763423E-06 2.58696417E-06 0.00000000E+00 4.94229630E-06
 1 23 1.67317684E-06-6.61547314E-06-1.98559776E-06 0.00000000E+00 0.00000000E+00
 1 24-1.67549544E-05-2.99030167E-05 6.05838216E-04-4.08482263E-07-3.17896398E-06
 1 25 0.00000000E+00 2.72640803E-04 1.61515751E-04 0.00000000E+00-8.74265905E-07
 1 26-7.93168862E-07 1.66743477E-06-3.28506629E-07 0.00000000E+00 0.00000000E+00
 1 27 4.26111973E-06 7.62846635E-06-4.54694650E-05 1.21990461E-06 1.08776732E-06
 1 28 0.00000000E+00-2.33346027E-05-3.82179160E-06 0.00000000E+00 7.46153153E-07
 1 29-2.65729044E-06 1.91113728E-06 7.99028615E-07 0.00000000E+00 0.00000000E+00
 1 30-1.99532737E-05-2.84094404E-05 1.11230185E-04-4.39886002E-06-1.43894699E-06
 1 31 0.00000000E+00 7.94522007E-04 3.12882093E-04 0.00000000E+00 2.54825567E-05
 1 32 1.77560778E-05-4.32386345E-05 3.73882509E-06 0.00000000E+00 0.00000000E+00
 1 33-3.58994190E-07-3.92722715E-07 1.93843379E-05-1.05076494E-06 1.52594385E-06
 1 34 0.00000000E+00 3.34440794E-06 1.31773697E-05 0.00000000E+00-7.38769027E-07
 1 35 1.69773442E-06-9.58965390E-07-9.64450260E-07 0.00000000E+00 0.00000000E+00
 1 36 1.04355992E-06-4.52818851E-05 4.86654664E-06-4.43898480E-06 0.00000000E+00
 1 37-8.47926943E-05 4.39192362E-06-2.62267087E-05-2.03388013E-05 0.00000000E+00
 1 38-7.74090305E-05-8.74541889E-06-3.24871484E-05-2.21847626E-06 0.00000000E+00
 1 39 1.43741822E-06 4.50914837E-05-2.89695779E-06 3.53128676E-06 0.00000000E+00
 1 40 4.80889399E-07-1.14571193E-05-2.05681239E-08 4.46892327E-07 0.00000000E+00
 1 41-7.86037627E-07-3.42475275E-06 1.17376883E-06-4.84409401E-06 0.00000000E+00
 1 42 2.28886301E-06-2.73655933E-05 3.73341376E-06 5.83118070E-06 0.00000000E+00
 1 43-3.37234604E-07 1.39090509E-06 6.51539033E-07 7.21693728E-08 0.00000000E+00
 2  1-7.67623262E-06-5.50563122E-05-6.40119096E-05-1.18625997E-04 3.76664081E-05
 2  2-1.32281466E-05 0.00000000E+00 1.26701507E-04-6.90626853E-06 0.00000000E+00
 2  3 5.40825973E-05 3.00926834E-05 0.00000000E+00-5.85747024E-05 4.07239764E-05
 2  4 1.78507260E-05-2.91749124E-05 0.00000000E+00 0.00000000E+00 8.35090956E-05
 2  5-1.81050424E-05-6.54040532E-05 7.25055627E-06 0.00000000E+00 0.00000000E+00
 2  6-7.47137985E-04-1.58577636E-04 4.38331781E-04 7.92572543E-05-2.99014865E-05
 2  7 0.00000000E+00-3.41942606E-04-4.13233237E-04 0.00000000E+00 9.37916332E-06
 2  8-3.82631075E-06-5.55285257E-06 4.99900781E-05 0.00000000E+00 0.00000000E+00
 2  9 1.00142093E+00 2.18557084E-03-6.64563884E-03-1.28649833E-03-2.80595614E-04
 2 10 0.00000000E+00 1.02046188E-03 1.81992299E-03 0.00000000E+00 5.66967671E-05
 2 11-1.27454429E-04 7.07576623E-05-2.26534201E-04 0.00000000E+00 0.00000000E+00
 2 12-1.70786668E-06-3.17092735E-06 2.30224771E-05 3.26184601E-06 1.23117742E-06
 2 13 0.00000000E+00 1.92978961E-06 1.60750231E-05 0.00000000E+00 1.02793680E-06
 2 14 3.18266218E-07-1.34620302E-06 1.58859120E-06 0.00000000E+00 0.00000000E+00
 2 15-8.50318001E-07-1.81909120E-06 1.54882536E-05-6.23316717E-06-5.96088723E-06
 2 16 0.00000000E+00 1.42130041E-05 4.90062450E-05 0.00000000E+00-8.23021947E-07
 2 17 2.60979414E-07 5.62042533E-07-1.74228539E-06 0.00000000E+00 0.00000000E+00
 2 18-1.19291821E-04-2.16387796E-04 1.51442631E-03-3.06612286E-05 3.28841243E-05
 2 19 0.00000000E+00 4.25291615E-04-1.40453724E-04 0.00000000E+00 1.07705222E-05
 2 20-1.53871725E-05 4.61665031E-06 4.02894014E-05 0.00000000E+00 0.00000000E+00
 2 21 3.15553875E-06 6.60232178E-06-1.84720168E-03-6.88796687E-05-4.70229712E-05
 2 22 0.00000000E+00 4.13271469E-04-6.47441951E-04 0.00000000E+00-3.18739503E-05
 2 23 8.29853909E-05-5.11114406E-05-6.78457939E-05 0.00000000E+00 0.00000000E+00
 2 24-9.18939723E-05-1.86477944E-04 1.75180575E-03-1.02570940E-06 4.39256872E-05
 2 25 0.00000000E+00 1.45336336E-03-2.63594375E-03 0.00000000E+00 1.09704876E-04
 2 26-1.28950698E-04 1.92458219E-05-1.39058666E-04 0.00000000E+00 0.00000000E+00
 2 27-8.57520517E-06-1.24328154E-05 1.80924043E-04-1.31541185E-05 4.19248073E-06
 2 28 0.00000000E+00 1.85810829E-04-4.14287380E-04 0.00000000E+00 7.15280062E-06
 2 29 1.50439200E-05-2.21967206E-05-6.18479036E-06 0.00000000E+00 0.00000000E+00
 2 30 8.92476315E-05 1.92750625E-04 1.44282751E-03 6.34624711E-05 2.76465619E-04
 2 31 0.00000000E+00 8.46015903E-04 4.24514241E-03 0.00000000E+00 8.14980269E-05
 2 32 5.15957429E-05-1.33093770E-04-1.01519821E-04 0.00000000E+00 0.00000000E+00
 2 33 2.69555015E-05 4.58104335E-05-5.48054839E-04 3.37502206E-06-8.27535000E-06
 2 34 0.00000000E+00 9.12013004E-05-2.94104597E-04 0.00000000E+00-3.01231414E-06
 2 35-1.54411618E-05 1.84534760E-05-1.17314982E-06 0.00000000E+00 0.00000000E+00
 2 36-8.36778905E-05-2.71763116E-04 1.16195241E-05-3.24523831E-05 0.00000000E+00
 2 37-1.36302013E-04 3.12763597E-04-9.75396633E-05 8.32032180E-06 0.00000000E+00
 2 38 1.83172949E-05-5.01975160E-05-5.59452493E-04 2.85151655E-04 0.00000000E+00
 2 39 1.05175153E-04 8.46496913E-04 4.13192387E-05 7.42103333E-06 0.00000000E+00
 2 40 3.40231746E-05 1.03634030E-05-1.53554922E-05 4.05295004E-06 0.00000000E+00
 2 41-7.44308824E-05 8.00681513E-05-2.89828245E-05 3.91109042E-06 0.00000000E+00
 2 42-9.08155225E-05-8.57362014E-06-4.93532692E-05 3.16720060E-05 0.00000000E+00
 2 43-7.32176092E-06-2.64490344E-05-8.31346262E-06-4.83188856E-06 0.00000000E+00
 3  1-8.20423846E-06-5.57255203E-05-4.98167732E-05-1.76421326E-04 2.65040731E-05
 3  2 2.81965259E-05 0.00000000E+00 1.08456878E-04 7.53712127E-05 0.00000000E+00
 3  3 1.07648488E-04 2.60108386E-05 0.00000000E+00-7.52722935E-05 4.78279532E-05
 3  4 2.74443404E-05-5.66885657E-05 0.00000000E+00 0.00000000E+00 5.84414213E-05
 3  5 1.40186114E-05-7.24600327E-05 6.69336593E-05 0.00000000E+00 0.00000000E+00
 3  6 1.00141978E+00 2.19294063E-03-6.67648458E-03-1.16102225E-03-5.09601130E-04
 3  7 0.00000000E+00 1.88199301E-03-7.79228294E-04 0.00000000E+00-1.95589190E-04
 3  8 1.26268013E-04 6.93211775E-05 1.55328697E-04 0.00000000E+00 0.00000000E+00
 3  9 6.01551554E-04-1.43303653E-04 3.58994416E-04 4.82619572E-05 7.33331925E-05
 3 10 0.00000000E+00-5.53965809E-04 1.44662068E-04 0.00000000E+00 4.63941000E-05
 3 11-3.93107915E-05-7.08330849E-06-7.96126960E-06 0.00000000E+00 0.00000000E+00
 3 12-3.09762198E-05-4.37395171E-05 1.97816294E-04-3.92302925E-07-4.39720219E-06
 3 13 0.00000000E+00 3.84509076E-05 4.41701015E-05 0.00000000E+00-2.08643107E-06
 3 14 2.52981605E-06-4.43384973E-07 1.59406404E-06 0.00000000E+00 0.00000000E+00
 3 15 9.36901812E-06 1.53421951E-05-1.75251549E-04 1.97218066E-07-1.27665634E-05
 3 16 0.00000000E+00 5.49471396E-05 1.20832564E-05 0.00000000E+00-4.20400640E-06
 3 17 1.04298962E-05-6.22588980E-06 3.29499522E-06 0.00000000E+00 0.00000000E+00
 3 18 5.60699073E-05 9.63490126E-05-1.15616995E-03-2.16209683E-06-8.30329547E-06
 3 19 0.00000000E+00-3.21943357E-04-6.94770556E-05 0.00000000E+00-4.29611882E-05
 3 20 5.66991950E-05-1.37380068E-05-4.20039300E-05 0.00000000E+00 0.00000000E+00
 3 21-9.95098684E-05-1.71574127E-04 3.46614964E-03 4.56364851E-05-3.50520312E-06
 3 22 0.00000000E+00-9.44763831E-05 1.77210246E-03 0.00000000E+00-1.05096159E-05
 3 23 4.86660400E-05-3.81564241E-05-8.26612745E-06 0.00000000E+00 0.00000000E+00
 3 24 3.50312629E-05 4.45991715E-05-3.92058626E-04-7.46438332E-05-6.94474838E-05
 3 25 0.00000000E+00 3.15663276E-04 4.25285722E-03 0.00000000E+00-7.52326276E-05
 3 26 8.39890987E-05-8.75647105E-06 7.00137679E-05 0.00000000E+00 0.00000000E+00
 3 27-5.85056336E-07-3.83415406E-06-2.96253489E-05-9.03037780E-07 1.87732653E-05
 3 28 0.00000000E+00-8.73343325E-05-8.49994729E-05 0.00000000E+00 7.53149062E-06
 3 29-1.80969238E-05 1.05654332E-05-2.30104343E-06 0.00000000E+00 0.00000000E+00
 3 30 1.09798739E-04 2.27076853E-04 6.59989471E-04 2.43114389E-04-1.72810755E-04
 3 31 0.00000000E+00 3.76883216E-03-2.42742366E-03 0.00000000E+00-3.06413484E-05
 3 32 1.74184440E-04-1.43543091E-04 2.75309328E-05 0.00000000E+00 0.00000000E+00
 3 33-2.81938901E-05-5.07852106E-05 1.51011665E-04-2.87851940E-06-1.02499696E-05
 3 34 0.00000000E+00 3.27270797E-04 1.97973806E-04 0.00000000E+00 6.31046273E-06
 3 35 1.82376212E-05-2.45480839E-05-2.68556332E-05 0.00000000E+00 0.00000000E+00
 3 36 1.75654177E-05 1.05849035E-04-5.18329980E-06-8.73882171E-05 0.00000000E+00
 3 37 4.04004235E-05-1.44425591E-05-2.43629438E-04-5.27135272E-04 0.00000000E+00
 3 38-1.55326719E-04 3.03293001E-04-7.94672051E-05-6.96709736E-05 0.00000000E+00
 3 39-8.95645498E-05-1.23053298E-04-3.42552776E-05-2.69358074E-05 0.00000000E+00
 3 40-7.70417377E-06 1.98077505E-05 1.13436636E-05 1.42319839E-05 0.00000000E+00
 3 41 6.94277281E-05-1.47447744E-05 4.86991051E-05 1.69288456E-05 0.00000000E+00
 3 42 4.75838322E-05 8.14047215E-06 3.98525870E-06-4.02239595E-06 0.00000000E+00
 3 43-1.38126463E-05 4.63816486E-05 5.96139803E-06-3.71709325E-06 0.00000000E+00
 4  1 2.73419103E-06 2.71411574E-05 6.63867837E-05-9.26251877E-06-1.80525608E-05
 4  2-1.12818396E-05 0.00000000E+00-6.27848409E-05-4.09168497E-05 0.00000000E+00
 4  3 8.62950407E-06 5.34399125E-06 0.00000000E+00 2.07118213E-05-4.57797821E-06
 4  4-1.61338431E-05 3.60404683E-05 0.00000000E+00 0.00000000E+00 3.66063784E-06
 4  5-2.80635185E-06-8.54285985E-07 1.65989071E-06 0.00000000E+00 0.00000000E+00
 4  6-1.45223040E-05-4.00684382E-05 1.99271438E-04 7.42239818E-06-5.93970759E-06
 4  7 0.00000000E+00-6.33586063E-05 4.51799203E-05 0.00000000E+00-3.40743946E-06
 4  8 2.65670424E-06 7.50735214E-07-2.87643113E-06 0.00000000E+00 0.00000000E+00
 4  9 8.77311589E-06 1.52566971E-05-1.28104915E-04 5.11215781E-06 4.93631507E-06
 4 10 0.00000000E+00 5.08475090E-05-3.35752369E-06 0.00000000E+00-5.04714280E-07
 4 11 1.44230494E-06-9.37590656E-07 5.91530794E-07 0.00000000E+00 0.00000000E+00
 4 12 1.00137295E+00 2.10136740E-03-6.23728995E-03 1.52020516E-03-2.66970202E-04
 4 13 0.00000000E+00-1.68643253E-03-9.80738505E-04 0.00000000E+00-5.35880254E-05
 4 14 2.92712000E-05 2.43168254E-05-1.95236641E-04 0.00000000E+00 0.00000000E+00
 4 15-3.31068146E-04-1.82510655E-04 3.79623460E-04 7.85265905E-05-1.33820205E-05
 4 16 0.00000000E+00 1.83911195E-04 5.18891453E-04 0.00000000E+00-7.48466595E-05
 4 17 7.80583298E-05-3.21167035E-06-6.65608567E-05 0.00000000E+00 0.00000000E+00
 4 18-2.18062790E-05-4.08926150E-05 1.36656597E-04-1.52684263E-05-1.01484691E-06
 4 19 0.00000000E+00 2.10714774E-04 2.10064268E-04 0.00000000E+00 1.03454321E-08
 4 20 3.84777650E-06-3.85812193E-06-5.17344084E-06 0.00000000E+00 0.00000000E+00
 4 21 3.12785140E-05 4.31340314E-05-1.92933423E-03-8.12542453E-06 4.66020436E-05
 4 22 0.00000000E+00-1.00046440E-04-1.98606508E-03 0.00000000E+00 7.46426067E-05
 4 23-9.71499451E-05 2.25073384E-05-2.18955263E-05 0.00000000E+00 0.00000000E+00
 4 24-9.42678728E-05-1.61740457E-04 1.68706997E-03 2.40777461E-06-3.18658944E-05
 4 25 0.00000000E+00-6.70612917E-04-2.00424866E-03 0.00000000E+00-3.50188996E-05
 4 26 9.07356300E-05-5.57167304E-05 2.09921364E-05 0.00000000E+00 0.00000000E+00
 4 27-6.73583982E-05-1.37668326E-04 2.14826425E-05-5.22234058E-05 1.43590487E-04
 4 28 0.00000000E+00 6.97170833E-04 5.29657056E-04 0.00000000E+00 1.53337920E-04
 4 29-9.47839551E-05-5.85539645E-05 5.36334438E-06 0.00000000E+00 0.00000000E+00
 4 30-4.77688097E-05-8.72584621E-05 8.01844984E-04 4.76690619E-06 1.18407278E-05
 4 31 0.00000000E+00-6.56107537E-04 2.33745947E-04 0.00000000E+00 9.89063268E-06
 4 32 5.05666774E-06-1.49473004E-05 8.86586650E-06 0.00000000E+00 0.00000000E+00
 4 33 1.14451123E-04 2.15666836E-04 2.40355646E-03-1.88686281E-04-1.57785047E-04
 4 34 0.00000000E+00-2.35367786E-03-2.08187024E-03 0.00000000E+00-5.16433339E-06
 4 35 1.13265417E-04-1.08101083E-04-2.00536501E-04 0.00000000E+00 0.00000000E+00
 4 36-1.15496798E-04-2.20956092E-04-2.80912306E-05 2.18747328E-05 0.00000000E+00
 4 37 4.06658773E-06 5.74768948E-05-1.34931522E-05-6.82505258E-06 0.00000000E+00
 4 38 1.99178105E-05 1.49192006E-05 3.94059494E-06-1.18122371E-05 0.00000000E+00
 4 39-1.01795178E-04-4.48647460E-04-4.22353616E-05 6.16746699E-05 0.00000000E+00
 4 40 5.72543527E-06 1.84215354E-04-4.81755066E-05 2.61310326E-05 0.00000000E+00
 4 41 6.89299627E-05 6.97528629E-05 6.84581439E-06-7.90698322E-06 0.00000000E+00
 4 42-5.88246893E-05 7.12081717E-06 1.67951365E-05-1.75567077E-07 0.00000000E+00
 4 43 9.94136517E-05-1.96630748E-04 3.65013655E-04-5.24305635E-04 0.00000000E+00
 5  1 1.06889037E-06 1.04706902E-05 2.93139162E-05-3.34396727E-05-3.93950332E-06
 5  2-2.35470222E-06 0.00000000E+00-2.03055612E-05-1.36770677E-05 0.00000000E+00
 5  3 2.52428653E-05 2.84864301E-05 0.00000000E+00 5.90842472E-06-7.86816371E-06
 5  4 1.95973900E-06 5.65082032E-08 0.00000000E+00 0.00000000E+00 2.14112530E-07
 5  5 2.05359368E-06-2.26770621E-06 2.37477227E-07 0.00000000E+00 0.00000000E+00
 5  6-4.37843900E-07 4.35663870E-07 2.31519566E-05 3.47925764E-06-3.11696780E-06
 5  7 0.00000000E+00-2.83068853E-05 3.66866048E-05 0.00000000E+00-9.44185473E-08
 5  8-1.34456249E-07 2.28874797E-07-5.45912692E-06 0.00000000E+00 0.00000000E+00
 5  9 1.93326287E-06 3.56031767E-06-3.09604616E-05 2.64305303E-06 1.76175300E-06
 5 10 0.00000000E+00-2.39248090E-06-3.16416981E-06 0.00000000E+00 7.51183291E-07
 5 11 2.81220702E-07-1.03240399E-06-1.00576775E-07 0.00000000E+00 0.00000000E+00
 5 12 1.68459621E-04-1.62910536E-04 3.78931370E-04-7.27819456E-05-5.30510954E-05
 5 13 0.00000000E+00-3.87714612E-04 4.74631046E-04 0.00000000E+00-1.29316352E-04
 5 14 1.04641083E-04 2.46752687E-05-4.01138358E-05 0.00000000E+00 0.00000000E+00
 5 15 1.00141150E+00 2.12616756E-03-6.67060083E-03-1.67470145E-03 5.44741288E-04
 5 16 0.00000000E+00 1.67268879E-03-4.98882240E-04 0.00000000E+00 1.27077583E-04
 5 17-2.87042890E-06-1.24207154E-04-2.62384234E-05 0.00000000E+00 0.00000000E+00
 5 18-3.97396304E-06-6.18012000E-06 1.16129560E-04 1.06697846E-06-7.32350308E-06
 5 19 0.00000000E+00 1.33312818E-04 7.14300244E-05 0.00000000E+00-3.58186461E-06
 5 20 2.48418885E-06 1.09767576E-06-9.28058818E-06 0.00000000E+00 0.00000000E+00
 5 21 3.13090667E-05 4.39466011E-05-6.72760072E-04 1.14904655E-05 7.35502444E-06
 5 22 0.00000000E+00-1.32432566E-05-4.95173404E-04 0.00000000E+00 2.84656836E-05
 5 23-6.20565959E-05 3.35909123E-05 4.12060700E-05 0.00000000E+00 0.00000000E+00
 5 24-9.60836434E-06-1.30276232E-05 4.59424685E-04-1.43356315E-05-1.86931887E-05
 5 25 0.00000000E+00 1.23263779E-04-4.88039907E-04 0.00000000E+00-4.68977657E-06
 5 26 1.82535495E-05-1.35637729E-05 4.21930783E-05 0.00000000E+00 0.00000000E+00
 5 27-8.56039078E-06-2.26935744E-05 1.27566273E-03 2.76962760E-05-2.12700442E-06
 5 28 0.00000000E+00-9.66428478E-04-1.26676826E-03 0.00000000E+00-2.65518247E-04
 5 29 3.00370085E-04-3.48518378E-05 3.99594973E-04 0.00000000E+00 0.00000000E+00
 5 30-8.89033848E-06-1.83584517E-05-5.96597530E-05 1.24017560E-05 7.65586223E-06
 5 31 0.00000000E+00-8.06459234E-05 1.21698044E-04 0.00000000E+00-1.01688177E-05
 5 32 5.09727697E-06 5.07154073E-06 2.49984814E-06 0.00000000E+00 0.00000000E+00
 5 33 3.11527929E-04 4.26492121E-04 9.73434477E-04-2.70376758E-05 4.01201886E-05
 5 34 0.00000000E+00 3.39552893E-03-1.41422900E-03 0.00000000E+00-6.26026272E-04
 5 35 3.94279974E-04 2.31746298E-04 4.89201446E-04 0.00000000E+00 0.00000000E+00
 5 36 1.08311108E-05-2.54002624E-04-8.66290278E-06-9.69139140E-06 0.00000000E+00
 5 37 2.57630071E-06 1.07453048E-04-8.92752691E-06 2.03190314E-06 0.00000000E+00
 5 38-2.15234646E-06 6.53307762E-06 1.43108138E-06-6.17358767E-07 0.00000000E+00
 5 39-6.76635013E-05 9.87979091E-04 8.73996675E-05 1.20522792E-04 0.00000000E+00
 5 40 8.83919077E-05-4.10177208E-04 1.56093126E-04 5.63684904E-05 0.00000000E+00
 5 41 2.42519596E-05 3.95534770E-05 1.16454889E-05 1.33703337E-05 0.00000000E+00
 5 42-3.35310091E-05 8.58083661E-07-4.55308964E-06 4.01503939E-06 0.00000000E+00
 5 43 1.08229138E-04-5.96952207E-05-5.91076221E-05-7.09248431E-06 0.00000000E+00
 6  1 1.06477851E-05 1.04091269E-04 2.61339744E-04-1.13038474E-04-7.17598349E-05
 6  2 4.01942061E-08 0.00000000E+00-2.65937750E-04 4.18522193E-06 0.00000000E+00
 6  3 1.27102910E-04-4.98514831E-06 0.00000000E+00 1.04732646E-04-6.66194104E-05
 6  4-3.81132357E-05-1.49935020E-05 0.00000000E+00 0.00000000E+00 2.21945273E-05
 6  5-1.89249889E-05-3.26953835E-06 1.61043031E-05 0.00000000E+00 0.00000000E+00
 6  6 5.33298456E-05 9.50124573E-05-6.88713589E-04 6.07529895E-06 1.33830236E-05
 6  7 0.00000000E+00 2.38200582E-04 8.47322817E-05 0.00000000E+00-5.88101362E-07
 6  8 4.76527855E-06-4.17717719E-06-6.56625129E-06 0.00000000E+00 0.00000000E+00
 6  9-6.88771135E-05-1.34341585E-04 7.07675042E-04 9.76677803E-06 4.63863805E-05
 6 10 0.00000000E+00 1.73267133E-06-1.85373078E-04 0.00000000E+00-6.21629828E-06
 6 11-3.05114891E-05 3.67277873E-05-2.54096911E-05 0.00000000E+00 0.00000000E+00
 6 12-2.73461030E-05-5.06281078E-05 2.11445783E-04 7.66614470E-06-5.99474305E-06
 6 13 0.00000000E+00 1.03506107E-05 1.11266634E-04 0.00000000E+00-1.82909191E-06
 6 14 2.63071527E-06-8.01623357E-07 5.90726381E-06 0.00000000E+00 0.00000000E+00
 6 15 2.45232921E-06 3.64030950E-06-9.14031531E-05-8.15159540E-06-1.78258832E-05
 6 16 0.00000000E+00 5.84491278E-05 9.21525629E-05 0.00000000E+00-4.09760171E-06
 6 17 8.55724466E-06-4.45964295E-06-1.02453476E-06 0.00000000E+00 0.00000000E+00
 6 18 1.00200956E+00 3.71101415E-03-9.48156904E-03 6.35447972E-05 6.52541856E-05
 6 19 0.00000000E+00-2.36795153E-03 1.83742669E-03 0.00000000E+00-3.23537157E-05
 6 20 1.59829166E-04-1.27475450E-04 1.72274658E-04 0.00000000E+00 0.00000000E+00
 6 21-1.03820796E-04-1.77508468E-04 2.89090536E-03 2.21206916E-05-2.97093448E-05
 6 22 0.00000000E+00 1.85979471E-03 1.43667438E-03 0.00000000E+00 9.92768637E-05
 6 23-2.67452051E-06-9.66023432E-05 1.95904850E-04 0.00000000E+00 0.00000000E+00
 6 24 2.99567414E-04 4.45686579E-04-1.27612434E-03-7.41477568E-05 2.41482242E-05
 6 25 0.00000000E+00-5.96553902E-03 4.28180359E-03 0.00000000E+00-1.15852952E-04
 6 26 2.72550305E-06 1.13127449E-04 1.32744475E-04 0.00000000E+00 0.00000000E+00
 6 27-9.04050866E-05-1.54866815E-04 1.20117003E-03-6.74267215E-06 3.97234112E-05
 6 28 0.00000000E+00 6.09652180E-04-2.98650685E-04 0.00000000E+00 3.35335759E-05
 6 29 1.67583995E-05-5.02919754E-05 2.85305149E-05 0.00000000E+00 0.00000000E+00
 6 30-1.49133810E-04-2.59517541E-04 3.41221117E-03 4.51647536E-05-7.88885779E-05
 6 31 0.00000000E+00-1.01240712E-03-2.82061366E-03 0.00000000E+00-2.01916002E-05
 6 32 1.64775243E-04-1.44583643E-04 1.09568298E-04 0.00000000E+00 0.00000000E+00
 6 33-1.81663557E-06-8.88981360E-06-6.97525908E-04 3.91281560E-06-3.03033851E-05
 6 34 0.00000000E+00 3.77094590E-04-2.93042482E-04 0.00000000E+00-1.62744310E-06
 6 35-9.81227866E-07 2.60867097E-06-2.17006363E-05 0.00000000E+00 0.00000000E+00
 6 36-8.68869615E-05-3.54918187E-04-1.10642314E-04-6.24841764E-05 0.00000000E+00
 6 37 6.66103958E-05-1.59128293E-04 5.51539317E-05 4.89071435E-05 0.00000000E+00
 6 38-1.85376483E-06 1.37447494E-04-1.16052662E-06 6.88994008E-06 0.00000000E+00
 6 39-6.01937852E-05-5.62986621E-05-4.83872454E-05 2.60638709E-05 0.00000000E+00
 6 40 1.70271637E-05 1.70854449E-04-1.29784337E-05 1.41226516E-05 0.00000000E+00
 6 41-1.38895110E-04 9.01071783E-05-4.39811619E-04-3.78358248E-04 0.00000000E+00
 6 42-2.97481780E-04 6.47567822E-05 2.18383399E-04 6.31163224E-04 0.00000000E+00
 6 43-1.03428002E-06 1.08833838E-05-1.23214645E-05-5.00986314E-06 0.00000000E+00
 7  1-8.48309306E-07-8.62789962E-06-2.29816931E-05-1.37227217E-05 1.00029943E-05
 7  2-3.00979513E-07 0.00000000E+00 3.59022627E-05-2.33806402E-07 0.00000000E+00
 7  3 3.33190824E-07 1.12508868E-05 0.00000000E+00-1.68607458E-05 4.66194451E-06
 7  4 1.21988013E-05 2.53570051E-06 0.00000000E+00 0.00000000E+00-3.49651781E-06
 7  5 5.58343747E-06-2.08691965E-06-4.91620344E-06 0.00000000E+00 0.00000000E+00
 7  6-1.68508785E-05-3.01443328E-05 1.69369154E-04 6.67979418E-06-6.21917922E-06
 7  7 0.00000000E+00-9.85236756E-05 3.93312691E-05 0.00000000E+00 1.76577808E-06
 7  8-1.45476441E-06-3.11013674E-07-4.85624586E-06 0.00000000E+00 0.00000000E+00
 7  9 1.71858872E-05 3.10111262E-05-2.01925428E-04 7.17146831E-06-1.93958935E-06
 7 10 0.00000000E+00 2.71674342E-06 5.39536960E-05 0.00000000E+00 1.84194881E-06
 7 11 2.47781074E-06-4.31975955E-06-4.55150383E-07 0.00000000E+00 0.00000000E+00
 7 12 2.41738599E-04 7.18515980E-04-1.88942485E-03 1.96763679E-04 1.95817810E-04
 7 13 0.00000000E+00-1.37407920E-03-4.79692505E-04 0.00000000E+00-1.04076831E-04
 7 14-1.73373954E-04 2.77450785E-04-1.21061923E-04 0.00000000E+00 0.00000000E+00
 7 15-9.51783450E-05 5.56544051E-04-1.86268253E-03-3.75404652E-04 7.93933290E-05
 7 16 0.00000000E+00 1.17064202E-03 3.47786828E-04 0.00000000E+00 9.91779097E-05
 7 17-7.17130458E-05-2.74648639E-05-2.16679181E-04 0.00000000E+00 0.00000000E+00
 7 18-2.20298364E-05-3.89634321E-05 2.86514805E-04-5.32230638E-06-1.12894255E-05
 7 19 0.00000000E+00 1.67905388E-04 1.96259049E-04 0.00000000E+00-1.14418178E-05
 7 20 1.49529301E-05-3.51111230E-06-1.36362264E-06 0.00000000E+00 0.00000000E+00
 7 21 8.37780332E-05 1.84745053E-04-2.64255423E-03-6.15289428E-05 6.87634792E-05
 7 22 0.00000000E+00 4.69992563E-04-2.18282539E-03 0.00000000E+00 8.61374668E-05
 7 23-7.36680205E-05-1.24694464E-05-4.71828303E-05 0.00000000E+00 0.00000000E+00
 7 24-7.33232334E-05-1.25484676E-04 2.57516603E-03-1.70194947E-05-4.10211705E-05
 7 25 0.00000000E+00 2.01783229E-04-1.65684154E-03 0.00000000E+00-2.73788778E-06
 7 26 5.97939559E-05-5.70560682E-05 5.20651449E-05 0.00000000E+00 0.00000000E+00
 7 27 5.22173902E-03-1.44099209E-04 2.92094017E-03-3.56674801E-06 1.82945741E-04
 7 28 0.00000000E+00 3.72819646E-04-3.08753075E-03 0.00000000E+00 1.30325225E-04
 7 29-3.95885168E-04 2.65559943E-04-2.44350071E-04 0.00000000E+00 0.00000000E+00
 7 30-5.95654141E-06-1.67905096E-05-3.03825952E-04 2.29050036E-05 1.80743674E-05
 7 31 0.00000000E+00 8.72223012E-06 6.34660341E-04 0.00000000E+00-2.73973509E-05
 7 32 1.35258501E-05 1.38715008E-05-1.09205986E-05 0.00000000E+00 0.00000000E+00
 7 33 1.00175578E+00 3.46781371E-03-5.91242774E-03-3.84551339E-04-6.69268430E-04
 7 34 0.00000000E+00 1.56680198E-03-3.81055934E-03 0.00000000E+00 7.53378420E-04
 7 35 1.40681362E-04-8.94059783E-04-2.61181934E-04 0.00000000E+00 0.00000000E+00
 7 36-1.27425744E-04-8.24607826E-04-3.23990354E-05-2.16898177E-05 0.00000000E+00
 7 37-1.61263158E-05 1.90424220E-04-1.17496070E-05 2.17992562E-07 0.00000000E+00
 7 38-3.39365005E-06-1.65689816E-05-1.50009929E-06-8.02334218E-06 0.00000000E+00
 7 39 2.24629450E-04 2.79726342E-03-1.58838322E-04-1.42950107E-04 0.00000000E+00
 7 40-1.01299280E-04 1.58029039E-04-1.79533678E-05 9.56879812E-05 0.00000000E+00
 7 41 4.05928666E-05-1.34757290E-04 3.36501272E-06 3.06649813E-05 0.00000000E+00
 7 42-8.48777269E-05 4.39521670E-05 9.96143791E-06 7.48418274E-06 0.00000000E+00
 7 43 4.25173841E-04-2.76876831E-04-1.90915836E-05 2.12573739E-04 0.00000000E+00
 8  1 1.12021223E-05 1.22585007E-04 3.38491162E-04 2.12313578E-04-1.46438599E-04
 8  2-2.81668319E-05 0.00000000E+00-5.34564418E-04-1.12505360E-04 0.00000000E+00
 8  3-1.00834909E-04-8.91192967E-05 0.00000000E+00 3.27712625E-04-1.35431389E-04
 8  4-1.92281236E-04 1.51910808E-04 0.00000000E+00 0.00000000E+00 3.45372140E-05
 8  5-3.01507188E-05-4.38649523E-06 1.45480708E-05 0.00000000E+00 0.00000000E+00
 8  6 5.48343270E-05 1.23133182E-04-6.31873001E-04-2.99038298E-05 5.39540554E-05
 8  7 0.00000000E+00 2.79949048E-04-8.93202573E-06 0.00000000E+00 2.21532027E-05
 8  8-1.29947361E-05-9.15846665E-06 1.51555650E-05 0.00000000E+00 0.00000000E+00
 8  9-7.15915175E-05-1.12039686E-04 8.03469361E-04 1.40543659E-05 1.34149973E-05
 8 10 0.00000000E+00-5.41420587E-05-2.00742931E-04 0.00000000E+00 1.73317144E-05
 8 11-4.09158051E-05 2.35840908E-05-1.05531396E-05 0.00000000E+00 0.00000000E+00
 8 12-5.24699186E-05-9.59317817E-05 4.46381724E-04 4.79185003E-06-8.56246868E-06
 8 13 0.00000000E+00 8.08832972E-05 1.38836867E-04 0.00000000E+00-4.40593113E-06
 8 14 7.54590196E-06-3.13997084E-06 3.13121542E-06 0.00000000E+00 0.00000000E+00
 8 15 7.04477899E-08 7.90362849E-08-1.05933416E-04-1.08647941E-05-3.33851114E-05
 8 16 0.00000000E+00 1.38591703E-05 1.66505119E-04 0.00000000E+00 5.10245222E-06
 8 17 9.32759021E-06-1.44300424E-05-4.32940501E-06 0.00000000E+00 0.00000000E+00
 8 18 2.66828530E-04 8.11868091E-04-4.43819534E-03 1.60808997E-04-1.25709765E-04
 8 19 0.00000000E+00-2.16471494E-03 1.68381212E-03 0.00000000E+00-2.49904237E-04
 8 20-2.00377915E-04 4.50282152E-04 2.31210945E-04 0.00000000E+00 0.00000000E+00
 8 21 5.01508747E-03-1.46059776E-04 4.15341008E-03-4.84546027E-05 2.36333791E-05
 8 22 0.00000000E+00 2.67936753E-03 3.08555595E-03 0.00000000E+00-1.53757818E-04
 8 23-1.13972024E-04 2.67729842E-04 2.71464250E-04 0.00000000E+00 0.00000000E+00
 8 24 9.90140753E-01 4.16328974E-03-1.02668283E-02-4.27642138E-04 5.42206159E-04
 8 25 0.00000000E+00-5.35411687E-03 4.91978162E-03 0.00000000E+00 5.83229797E-04
 8 26 1.04806505E-04-6.88036302E-04-9.05072979E-05 0.00000000E+00 0.00000000E+00
 8 27-7.62518149E-05-5.09786630E-05 9.20580661E-04-1.03547144E-05 9.15308151E-05
 8 28 0.00000000E+00 9.00031554E-04-1.40101219E-03 0.00000000E+00 3.33315789E-05
 8 29 5.54514829E-05-8.87830619E-05 3.43648815E-05 0.00000000E+00 0.00000000E+00
 8 30 1.53513669E-01 2.04914347E-04 3.67479041E-03 3.79489238E-04 1.11404809E-04
 8 31 0.00000000E+00-1.84443055E-03-3.23606325E-03 0.00000000E+00-1.66567693E-04
 8 32-5.88980026E-05 2.25465695E-04 7.02270826E-05 0.00000000E+00 0.00000000E+00
 8 33 4.51235451E-06 4.88370832E-06-1.70344545E-03-1.05987190E-05-4.52322428E-05
 8 34 0.00000000E+00 7.67004554E-04-5.31160255E-04 0.00000000E+00-1.85345480E-05
 8 35-5.31358166E-07 1.90659061E-05-3.87256516E-06 0.00000000E+00 0.00000000E+00
 8 36 8.33596621E-05-2.29172442E-04-1.92892663E-04 1.04196418E-05 0.00000000E+00
 8 37 8.59965647E-05-4.84325596E-04 3.20203541E-05 7.22896617E-05 0.00000000E+00
 8 38-1.55008979E-06 1.26650918E-04-2.41923602E-05-3.28196629E-05 0.00000000E+00
 8 39 1.00234552E-04 2.18163811E-03 1.16815887E-04 8.85928902E-05 0.00000000E+00
 8 40 1.26152932E-04 3.48258724E-04-6.76198633E-06 3.88066846E-05 0.00000000E+00
 8 41 2.13820948E-04-6.10191600E-04 2.74043242E-04-1.42021466E-04 0.00000000E+00
 8 42 1.19261132E-04-4.11530083E-04 2.33425211E-04-2.21377282E-04 0.00000000E+00
 8 43-4.41669885E-05 1.41588412E-05-1.16937501E-05-2.11160887E-05 0.00000000E+00
 9  1-8.94621630E-06-2.55214490E-05 1.66363255E-04 1.94060344E-04-1.07426447E-04
 9  2-4.17845426E-05 0.00000000E+00-5.16505164E-04-1.95931007E-04 0.00000000E+00
 9  3-3.30854684E-05-1.06722063E-05 0.00000000E+00 3.94603117E-04-2.27211637E-04