 $SYSTEM MWORDS=1000 MEMDDI=125 $END
 $CONTRL MAXIT=200 SCFTYP=RHF RUNTYP=ENERGY ISPHER=1 UNITS=ANGS
  EXETYP=RUN COORD=UNIQUE ICHARG=0                   $END
 $BASIS gbasis=CCD                                   $END
 $SCF DIRSCF=.TRUE.                                  $END
 $SCF DIIS=.TRUE.                                    $END
 $SCF SOSCF=.FALSE.                                  $END
 $STATPT NSTEP=1000                                  $END
 $GUESS GUESS=MOREAD                                 $END
 $ELMOM IEMOM=0                                      $END
 $DATA
 vanillin HF/CCD local minima geometry
C1
O     8.0     2.22695327    -0.95859718     0.00005916
O     8.0     2.33445716     1.63762438     0.00026322
O     8.0    -3.73747563    -0.28230202    -0.00012273
C     6.0     1.04243195    -0.31928414     0.00002073
C     6.0    -1.37197244    -0.16070020    -0.00016000
C     6.0    -0.19698533    -0.92353195    -0.00015506
C     6.0     1.11060548     1.08625484     0.00014703
C     6.0    -1.29572904     1.21884215    -0.00002890
C     6.0    -0.05184163     1.83623290     0.00012124
C     6.0    -2.68744731    -0.84016967    -0.00031289
C     6.0     2.25422788    -2.35692239     0.00012650
H     1.0    -0.27493373    -2.00086546    -0.00026957
H     1.0    -2.20396376     1.80262232    -0.00002700
H     1.0     0.01833582     2.91728568     0.00020145
H     1.0    -2.63913584    -1.94350219    -0.00064462
H     1.0     1.77441561    -2.76825953    -0.89140898
H     1.0     1.77435398    -2.76813650     0.89170092
H     1.0     3.30331135    -2.63934398     0.00011010
H     1.0     2.26589131     2.58055329     0.00027937
 $END
--- CLOSED SHELL ORBITALS --- GENERATED AT Wed Jun 24 04:09:25 2015
 vanillin HF/CCD local minima geometry
E(RHF)=     -532.2094361097, E(NUC)=  584.5943394471,   13 ITERS
 $VEC
 1  1-3.80553966E-04-9.47058838E-05 4.01597376E-04 4.33642193E-05-3.68040340E-05
 1  2 6.73771101E-09-6.10244496E-05 1.85832752E-04-3.12304731E-08-2.67142255E-05
 1  3-1.27617452E-05 3.94759707E-05 1.02071741E-05-3.36903199E-09 1.45072627E-09
 1  4 1.00147441E+00 2.29473709E-03-6.99682585E-03-1.47675903E-03 8.02779017E-04
 1  5-9.23346176E-08 2.07393657E-03 2.88816597E-04 1.52769551E-07-1.43707869E-04
 1  6 1.40437177E-04 3.27069286E-06-6.60692322E-05-1.50679461E-08-7.71117208E-10
 1  7 1.58319219E-05 2.13179830E-05-9.83877465E-05 2.07657435E-06 9.35494884E-06
 1  8-4.69834106E-11-5.77750586E-05-3.78446274E-05-1.12896703E-09-5.17836229E-06
 1  9 4.92773918E-06 2.50623110E-07-2.21539907E-06-1.80599180E-10 2.58290137E-09
 1 10-2.03661109E-04-3.71902636E-04 4.15838347E-03-2.86856928E-05-4.07146786E-05
 1 11-2.36591439E-10-2.58884572E-03 1.26109272E-03-8.83819255E-08 8.85360678E-05
 1 12-1.13525168E-05-7.71835510E-05-2.33495183E-04-1.53131866E-09-4.71761167E-09
 1 13-2.97157032E-05-5.50341505E-05 4.19259828E-04-4.01353751E-05-2.13477002E-05
 1 14-7.31136048E-09 1.15316140E-03 4.32065358E-04 1.35971417E-07 1.98622131E-05
 1 15-1.48927196E-05-4.96949347E-06 4.22829868E-05 7.31458628E-09-1.11981689E-09
 1 16 3.23190971E-06-1.32310711E-06-2.43666933E-03-2.63941354E-05-4.53961218E-05
 1 17-3.92363801E-09-5.74887053E-04-9.93242296E-04-1.85373491E-07 9.36234986E-05
 1 18-8.46885752E-05-8.93492348E-06-4.05280020E-05 3.76510848E-09-1.55363782E-08
 1 19 3.34990850E-04 5.89346040E-04-5.14413574E-04 1.81390550E-04 9.61084460E-05
 1 20 1.82139755E-08 4.51876123E-03 3.40343111E-03 5.61217306E-07-1.89004234E-04
 1 21 1.88167644E-04 8.36590263E-07-2.66823656E-04-4.01782183E-08-5.61820326E-09
 1 22 2.35059743E-05 3.56149894E-05-2.45283594E-03-2.47384706E-05 2.33215084E-05
 1 23-1.90790405E-09-1.03508143E-03-2.60834223E-04-1.11972040E-07-5.02022942E-05
 1 24 4.95541949E-05 6.48099330E-07 1.18761111E-04 4.64841797E-09 1.13116871E-08
 1 25-8.62357370E-05-1.56978653E-04 2.62703470E-03-3.87195052E-05 6.25300727E-05
 1 26 1.13869973E-09-1.52264493E-03-2.10422160E-03-2.66466456E-07-2.84716646E-04
 1 27 3.81280715E-04-9.65640690E-05-6.78393391E-06-1.59187059E-08 3.75338214E-08
 1 28-1.29029487E-05-2.06708643E-05 7.31623305E-04 1.34821537E-06 5.52478383E-06
 1 29-3.12263185E-10 2.37326265E-04 2.13220056E-04 4.55345303E-08-6.43318637E-06
 1 30 1.63460480E-05-9.91286158E-06-9.35638895E-06-5.75604684E-09 1.13204284E-08
 1 31-5.20974475E-05-9.21217879E-05 4.18410018E-04 8.60385472E-06 1.06047485E-05
 1 32-7.12987093E-10-1.68126231E-04 3.10102490E-04-6.78195560E-09-1.72033098E-05
 1 33 3.22798410E-05-1.50765312E-05-1.84457092E-05 2.29090494E-09 1.78316609E-09
 1 34 6.83043188E-05-2.63510256E-04 1.27182421E-05 4.73329921E-05 7.52829849E-09
 1 35 1.13525414E-04-9.25341987E-05 5.79180358E-05-1.50977295E-05 2.75198212E-09
 1 36-6.38650729E-05 5.57384363E-04 4.48494119E-05 1.77559199E-04 1.62158190E-08
 1 37-2.39559610E-05 3.35658808E-05-1.47295080E-05-1.10932792E-05-3.11959045E-09
 1 38-4.31848755E-05 5.09291573E-05 7.32215267E-06 4.22133786E-07 6.92713054E-06
 1 39-4.31786213E-05 5.08940954E-05 7.32469506E-06 4.20989747E-07-6.92704961E-06
 1 40-1.79443142E-06 5.27143686E-05-1.62577224E-06-1.84017683E-05 2.25789444E-09
 1 41 1.11706109E-04-3.73668947E-04-1.11978097E-04 6.24576365E-04 1.15248187E-08
 2  1 1.00157186E+00 2.47432916E-03-7.90535089E-03-1.40394153E-03-6.84211044E-04
 2  2-1.09638491E-08 2.06912805E-03 5.69974050E-04 7.08787954E-08-5.04286508E-05
 2  3-6.99885529E-05 1.20417204E-04 1.52763245E-05-4.31757525E-09 1.57778743E-08
 2  4 2.79228809E-04-1.08105879E-04 4.78735150E-04 4.23433531E-05 1.75478477E-05
 2  5 5.56706352E-10-4.40710724E-05 4.27643002E-05 1.02323078E-08-3.21201433E-05
 2  6 7.80947030E-06 2.43106730E-05-1.50351902E-05-4.66255187E-09-2.78449773E-09
 2  7 3.01835987E-05 3.51727106E-05-1.26134735E-04 4.92481072E-06 7.38433741E-06
 2  8 2.30288372E-10-1.03093797E-04 6.40155619E-06 3.96519991E-09-5.84290912E-06
 2  9-4.85536420E-07 6.32844554E-06 8.07134529E-06 6.58365992E-10-1.60511049E-09
 2 10 2.90937075E-04 5.23749283E-04 9.55302511E-04 1.92992996E-04-1.21818377E-04
 2 11 8.06974412E-09 3.10769266E-03-3.81369322E-03-6.62421738E-08-2.23285205E-04
 2 12 2.42984606E-04-1.96994007E-05 2.47717526E-04 1.27494555E-08 5.93368088E-08
 2 13 8.35308091E-05 1.45458086E-04-2.87815475E-03-4.44453175E-05-5.01027129E-05
 2 14-1.50359703E-08-1.15623400E-03 1.84791006E-03 1.52388397E-07-9.80781684E-05
 2 15 8.46706976E-05 1.34074708E-05-5.73676306E-05-1.18976898E-08 4.08811786E-09
 2 16-4.60998995E-05-8.14839870E-05 2.43398334E-03-1.19773075E-05-6.20603131E-05
 2 17-3.63151623E-10-2.76441045E-03 2.22823146E-03-3.27697961E-08-2.64808832E-04
 2 18 3.37641747E-04-7.28329155E-05 9.39607446E-05-1.74636236E-08 6.21461289E-08
 2 19-1.55631734E-04-2.92910673E-04 3.09664212E-03-1.06102783E-05 4.49419231E-05
 2 20-5.22210814E-09-1.91221157E-03-7.05021460E-04-1.98860552E-07 1.52892165E-04
 2 21-1.14237127E-04-3.86550380E-05 1.60030838E-04 2.96175664E-08 1.05720074E-08
 2 22-2.57330128E-06-7.48386889E-06-3.03110125E-04-2.13445249E-05 2.92938868E-05
 2 23 3.35501326E-10 7.39648808E-04 4.42204566E-04 7.85267699E-08 1.93642675E-05
 2 24-2.56428488E-05 6.27858129E-06-5.48536819E-05-8.52168075E-10-4.16556363E-09
 2 25 2.59716124E-06-8.81165292E-07-1.89831975E-03-4.67238715E-05 4.37363972E-05
 2 26-6.30474754E-10 6.83120355E-06 5.46747413E-04 4.95358531E-08 8.10571848E-05
 2 27-7.13014536E-05-9.75573124E-06 1.43470204E-05 7.18612165E-09-3.89080602E-09
 2 28 1.50069376E-05 3.69521174E-05 5.73504362E-04 4.88626787E-05 3.05966571E-05
 2 29 1.69111381E-08 2.30215244E-04-7.29498299E-05-1.26182600E-08 5.27021135E-05
 2 30-3.46270846E-05-1.80750290E-05 1.08543934E-05-3.98375866E-09 5.32326555E-09
 2 31 1.22220883E-04 2.54078699E-04 1.62266478E-03-3.18193366E-05 3.67795572E-04
 2 32-2.23600299E-08-4.62043201E-04 2.53068515E-04-6.46955979E-08 4.10698824E-05
 2 33-2.09487052E-04 1.68417169E-04-1.01465941E-04-3.59014736E-09 1.64939751E-08
 2 34-3.88495876E-05 4.98512397E-04 6.75054567E-05-1.63719019E-04-1.20350971E-08
 2 35 3.54301926E-05 9.53686546E-05-3.16342504E-05-3.58844379E-06-9.45323048E-10
 2 36 7.83695437E-05-8.24267618E-05-3.15787563E-06-3.37631443E-05-2.62879537E-09
 2 37-1.07269748E-05-1.40862682E-04-5.44536082E-06 5.05337916E-06-7.03467168E-10
 2 38-3.36415653E-04-3.36047197E-04-1.38013281E-05-1.22515806E-04-6.77261733E-05
 2 39-3.36399822E-04-3.36093529E-04-1.37862171E-05-1.22512453E-04 6.77583609E-05
 2 40-1.64191195E-04-1.72266609E-06 8.15608919E-05-3.50234052E-05 1.28803177E-08
 2 41-4.91002259E-05 1.37460137E-04-1.97533943E-05 1.99490261E-05-3.98423577E-09
 3  1-1.29927595E-07 1.92757017E-05-4.14897324E-05-1.45485193E-05-1.94104261E-05
 3  2-2.64240523E-09 1.49212022E-04 1.61717728E-04 2.36712803E-08-7.58218338E-06
 3  3-1.25876822E-06 8.84095160E-06-1.41371377E-07-1.40248569E-09 1.20666251E-09
 3  4 1.34275285E-05 3.09332235E-05-2.43348753E-04 1.32717915E-06 5.75231364E-06
 3  5 2.26674646E-09 6.09930957E-05-9.46476980E-05-1.17722699E-08 1.74443558E-06
 3  6-2.31843648E-06 5.74000898E-07 3.91444749E-06 1.17107240E-09 9.70286928E-10
 3  7 1.00139491E+00 2.06355358E-03-6.55426033E-03 1.61530850E-03-8.18225750E-04
 3  8-3.01030199E-07-1.58348398E-03 6.87480753E-04 2.80066904E-07 1.70987398E-04
 3  9 9.47026901E-05-2.65690088E-04-9.18200190E-05-3.95644262E-08 1.27447863E-07
 3 10-6.41290646E-05-1.00653918E-04 2.52664232E-03-6.78812262E-05-3.00416563E-05
 3 11-1.12344720E-08-1.36837569E-03-6.57959592E-04-1.96729517E-07 5.61112143E-05
 3 12 5.53019665E-06-6.16414109E-05 7.15208437E-05 1.75926844E-08 1.20889319E-08
 3 13 3.66464733E-05 4.49317352E-05-1.00072869E-03 4.01933007E-05 6.95276752E-05
 3 14 2.92357395E-09 2.42668502E-03-1.66860535E-03-2.14779648E-07-2.64386642E-04
 3 15 2.83005940E-04-1.86192981E-05 7.29051404E-05 2.65157970E-08 1.00306530E-07
 3 16 9.81379185E-05 1.63126015E-04-3.76677633E-03 3.84037045E-05 2.64279485E-05
 3 17 1.45095499E-08-1.06871794E-03-1.25385213E-03-1.97315602E-07-1.40628118E-04
 3 18 1.06917770E-04 3.37103477E-05-1.26027310E-04-4.94975013E-08 5.76674805E-09
 3 19-9.23995074E-06-1.74427660E-05 2.60865588E-04-9.48238960E-06 1.24742458E-05
 3 20-3.90307063E-09 3.91078944E-04 2.84109118E-04 8.34847252E-08 6.19363915E-06
 3 21-5.86747618E-06-3.26162975E-07 1.14508566E-05 1.26051773E-09-4.51783283E-10
 3 22-6.52952779E-05-1.27985663E-04 8.60066924E-04 2.90704514E-07 5.63476623E-05
 3 23-1.51706643E-08-9.48497107E-04-9.99123505E-04-5.32934716E-08 3.98393569E-05
 3 24-5.76095101E-05 1.77701532E-05 6.27597035E-05 8.40719524E-09 3.04628795E-09
 3 25-2.74101895E-05-5.03337213E-05 7.99087644E-04 4.04567428E-05-2.50725898E-06
 3 26 5.44476880E-09-6.39632481E-04-7.08697426E-05-1.02291470E-07 7.09603422E-06
 3 27-1.49906686E-06-5.59696736E-06-1.18569003E-05 7.11476024E-09-1.71202674E-09
 3 28 2.25740481E-04 2.78765114E-04 3.38296060E-03 1.47268322E-04-1.34394187E-04
 3 29-4.62279345E-08-1.84625848E-03 2.22620453E-03 5.91628171E-07-5.04852922E-04
 3 30 3.61102512E-04 1.43750410E-04 6.40030742E-04 1.81473537E-07 5.58816731E-08
 3 31 1.08084376E-05 2.18956908E-05 6.33100866E-05-1.22972542E-06 2.68775190E-05
 3 32-1.74332900E-09-3.08878872E-05 2.16482738E-05-8.65419405E-10-1.77403306E-05
 3 33 1.26368874E-05 5.10344316E-06 1.21344810E-06-6.07354815E-10-3.78950964E-09
 3 34-8.14135694E-05-1.90230594E-04 2.55620028E-05-3.87531715E-06 1.42201831E-09
 3 35-6.34520992E-05-1.93485664E-04 7.39993710E-05 7.21077916E-05-7.17527811E-10
 3 36-3.14979906E-05 3.88300021E-05 2.13646524E-05-6.38403489E-06 6.39942141E-09
 3 37-9.99694666E-05 3.55225057E-04 3.08616869E-04-1.78469354E-04-5.34414233E-08
 3 38-1.46691982E-05-5.95340153E-06-1.24740738E-06-4.18249039E-06-2.45974669E-06
 3 39-1.46709992E-05-5.96729699E-06-1.24517663E-06-4.18427884E-06 2.46273985E-06
 3 40 9.30427065E-06 7.54410503E-06-3.37938675E-06 1.54829146E-06 3.57083067E-10
 3 41 6.25832154E-05-1.08507574E-05 3.35040769E-06-2.04420357E-05 3.08750059E-09
 4  1 1.71700140E-05 2.99244481E-05-1.48818143E-04-6.57836124E-06-2.29789882E-05
 4  2-5.11305002E-09 1.47396127E-04 2.04122462E-04 3.84004660E-08-7.70712600E-06
 4  3 2.02697582E-06 5.68015019E-06-3.27893264E-06-1.90212814E-09 1.98284153E-09
 4  4 1.29220757E-05 2.18651863E-05-1.83055596E-04 5.50768059E-07 6.47119356E-06
 4  5 1.86143197E-09 7.48159491E-05-8.08584152E-05-6.75145166E-09 4.63792874E-07
 4  6-4.05174453E-06 3.58795166E-06 8.71506387E-07 4.50426302E-10 8.36787997E-11
 4  7-1.15575225E-04 6.75429238E-04-2.29298283E-03 3.70754750E-04-2.04477421E-04
 4  8-8.17976103E-08-1.05523211E-03 6.07042026E-04 2.34085834E-07 1.22308197E-04
 4  9-1.11697916E-04-1.06102807E-05-1.89763957E-04-6.30439730E-08-2.58741852E-08
 4 10-5.05026547E-05-1.25540103E-04 1.61883316E-03 4.28425596E-06-5.98080635E-06
 4 11 3.42578300E-09-1.00831067E-03-1.01636553E-03-2.48026838E-07 3.58807270E-05
 4 12-9.60163472E-06-2.62790923E-05 5.18421441E-06 1.25324198E-08 9.53699199E-09
 4 13 4.10674567E-03 1.27064205E-04-1.53094074E-03-2.04830508E-05 3.47102695E-05
 4 14 1.41151831E-08-2.22260549E-04-1.54287184E-03-2.78782256E-07-1.85220840E-04
 4 15-2.15035377E-04 4.00256216E-04-2.15114390E-04-5.00331286E-08-1.21773652E-07
 4 16-6.52581655E-05-6.88002945E-05-1.09038770E-03 6.72669945E-05 1.19961899E-05
 4 17-7.89465777E-09-1.83674152E-03-3.30919065E-04-1.10417485E-07 4.12489563E-05
 4 18 5.22224754E-05-9.34714317E-05-3.08062289E-05 1.09000001E-08 1.77207532E-08
 4 19-8.91343194E-05-8.73446608E-05 1.37222978E-03-1.84979256E-05 1.19089354E-05
 4 20-4.23735050E-09-5.63867393E-05 2.72986998E-05 2.86903291E-08 1.88075219E-05
 4 21 1.89870975E-05-3.77946194E-05-1.72874162E-05 3.00758250E-09 8.14523467E-10
 4 22-9.31604016E-05-1.33718319E-04 1.93784721E-03 1.04862527E-05-6.33342952E-05
 4 23 8.35527395E-09-2.07030014E-04-1.56559649E-03-1.42772915E-07 3.41335488E-05
 4 24 1.26440088E-04-1.60573637E-04-2.75787105E-05 1.56243436E-08 6.52013250E-09
 4 25 6.85567619E-06-7.81506690E-06-2.14910189E-04 2.67173250E-05-1.40277842E-06
 4 26 1.46422530E-09-6.40894567E-04 4.96970700E-04-9.56116309E-09-1.94628382E-05
 4 27-1.02977424E-05 2.97605805E-05 5.94486759E-07-9.45727358E-09-4.70624378E-09
 4 28 1.00186971E+00 3.76149609E-03-4.77995945E-03-4.70449686E-04 2.06720263E-04
 4 29 7.61951651E-08-2.11119671E-03 1.16341991E-03 3.41513427E-07 6.20878898E-04
 4 30 2.17989362E-04-8.38868261E-04-4.34486259E-04-1.89555377E-07 3.84151380E-07
 4 31-1.30975895E-06-5.05240271E-06 1.30220921E-04 1.54469521E-05 2.98530264E-05
 4 32-9.64237507E-10-1.81251089E-04 6.33911664E-05-2.48411895E-09-1.69761243E-05
 4 33 1.58433221E-05 1.13280224E-06 2.75849372E-06 1.25065179E-10-7.03916785E-09
 4 34-1.06032013E-04-2.27135988E-04 8.91095889E-05-2.49484834E-05 3.45160005E-10
 4 35-1.20697681E-04 1.07449245E-04-4.25038271E-06 7.90123445E-05 9.24365058E-09
 4 36-4.01645791E-05-8.61113542E-05 1.84669070E-05-2.28345828E-05-1.39611768E-09
 4 37-1.04240324E-04 1.40571910E-03 5.76983397E-05-4.55121264E-04-1.33683017E-07
 4 38-3.93453546E-05-9.60723268E-06 4.00141586E-07-5.28083538E-06-5.16012734E-06
 4 39-3.93476507E-05-9.65837611E-06 4.07547313E-07-5.28826482E-06 5.16724390E-06
 4 40 3.14531289E-05 7.95205834E-05-5.53000198E-06 3.11887508E-06 1.77323731E-09
 4 41 5.97086417E-05 1.69718998E-05-2.70568231E-06-1.89749425E-05 9.95123504E-10
 5  1-3.06589799E-05-4.91126853E-05 3.24495816E-04-1.25186552E-05 3.17693187E-05
 5  2 6.16714246E-09-2.24010792E-06-1.73254695E-04-4.74049862E-08-2.90106498E-05
 5  3 3.20239913E-05-3.01334147E-06-1.53139873E-05 7.03759428E-10 3.98671669E-09
 5  4 3.79382882E-04 9.95160237E-04-3.48167312E-03-1.94167688E-04-1.67460088E-04
 5  5-1.34586357E-08 1.64654315E-03 5.96238465E-04 1.24524884E-07-2.05765971E-04
 5  6-6.85667029E-05 2.74332674E-04-1.58329914E-04-4.84480973E-08-2.75889791E-08
 5  7-6.23198869E-06-1.18926557E-05 2.27201352E-05 2.95133784E-06 7.56014716E-06
 5  8 2.94693921E-09-5.46519691E-05-2.14918592E-05-8.86011790E-09-5.39785712E-06
 5  9 2.31136528E-06 3.08649184E-06 2.35341781E-06 1.33758577E-09 1.65987548E-10
 5 10 5.48851897E-02-2.57766963E-04 6.23514387E-03 1.04877269E-04 3.04385069E-06
 5 11 1.40855267E-08-1.76691122E-03 3.64563522E-03 1.63797600E-07-1.55029642E-04
 5 12-1.26335880E-05 1.67663231E-04-1.60003524E-04-3.76612216E-08-2.95412310E-08
 5 13-2.19977988E-04-1.63456537E-04 2.43544713E-03-3.82324525E-05 1.79508235E-05
 5 14-3.74533741E-09 1.54162807E-03 1.29344524E-03 2.44390214E-07-3.05499993E-06
 5 15 6.14017191E-05-5.83467192E-05-1.05003287E-05 5.38572146E-09 7.71058385E-09
 5 16 4.69162713E-04-6.11485505E-05-1.51892058E-03 3.73431513E-05-1.02988697E-05
 5 17 1.08572469E-08 2.57128855E-04-1.34400324E-03-1.48070238E-07 6.79404465E-05
 5 18 2.17636053E-06-7.01168070E-05 6.87258843E-05 2.53064614E-08 9.57105763E-09
 5 19 1.00063452E+00 4.47378084E-03-1.28235896E-02 9.44534007E-04 3.61260688E-04
 5 20 7.58547033E-08 5.66337355E-03 3.44994551E-03 7.10440416E-07 5.07333102E-04
 5 21 4.55513402E-05-5.52884442E-04 1.90244425E-04 8.44839883E-08 5.66312043E-08
 5 22 7.64482393E-05 1.12185062E-04-3.98665452E-03-1.86571631E-05 4.12759304E-06
 5 23-1.61890432E-09-1.60576129E-03 1.17568629E-03-2.09886319E-08 1.00079619E-04
 5 24-7.99615790E-05-2.01180400E-05-7.83052255E-06 1.00430625E-08-8.39032648E-09
 5 25 8.38961675E-03-5.07366133E-04 6.56563303E-03 6.57149514E-05 1.58706809E-05
 5 26 3.42865430E-09 4.25222811E-04-4.42480879E-03-3.29364284E-07-8.22098610E-05
 5 27-7.19013731E-05 1.54111234E-04-1.26875763E-04-3.27762274E-08-2.48347893E-08
 5 28 4.12423222E-06-5.65143398E-05 9.01387977E-04-4.01771657E-06 8.37067768E-06
 5 29 1.50546873E-09 4.17447184E-04 9.81542685E-05 3.98295326E-08 1.59447394E-05
 5 30-2.45613376E-06-1.34886056E-05-1.48909495E-05-1.64939176E-09 6.05971827E-09
 5 31-4.77033901E-05-1.29281603E-04 3.71285127E-04 1.43734203E-05-2.88457646E-05
 5 32 2.16294273E-09-3.17620776E-04 2.96637172E-04-2.42943406E-08 2.09147171E-05
 5 33-4.73561825E-06-1.61790989E-05-7.95833123E-05 1.17148501E-08 3.59894014E-09
 5 34-4.58627271E-05-3.62291286E-04 1.14263168E-05 3.17320947E-05 6.17461542E-09
 5 35-4.99265140E-05-3.70282597E-04 4.91195865E-05 9.50545060E-06 8.23285520E-09
 5 36 2.68460825E-04 1.42721874E-03 3.86476153E-05-6.90682888E-05 1.65326090E-09
 5 37-3.95291469E-05 5.90758744E-05 5.54401497E-07 6.41635708E-06 7.31596974E-10
 5 38-3.07510164E-05 4.90684545E-05 1.76444281E-05 1.13189544E-05 1.07705958E-05
 5 39-3.07383634E-05 4.90634456E-05 1.76442941E-05 1.13214831E-05-1.07749182E-05
 5 40-4.40984601E-06 1.19739581E-04 1.94191986E-05-1.76814094E-05 1.84178771E-09
 5 41 3.82673651E-04-5.65473247E-04-1.86652451E-04-2.28085569E-04-2.17665425E-08
 6  1 3.59129474E-04 9.56404984E-04-3.23127109E-03-2.32474302E-04 1.69999472E-04
 6  2-2.06801912E-09 1.78626044E-03-1.40722889E-03 1.80299625E-08-2.04073106E-04
 6  3-2.38727080E-05 2.27945814E-04 2.24909866E-04-1.09088267E-08 2.02318786E-09
 6  4-9.17666884E-05-1.92515046E-04 9.25856349E-04 1.41601706E-05 6.02687994E-06
 6  5-3.94325365E-10-2.33243180E-04 1.60923286E-04 1.16523455E-08-9.38195104E-06
 6  6 5.06735416E-05-4.12915905E-05 4.28746582E-05 2.32861370E-09 8.61150357E-09
 6  7-2.41908277E-05-4.65075423E-05 1.44730747E-04-3.98133013E-06 1.35226003E-05
 6  8 6.27520814E-09-5.97548231E-05-2.16066454E-05-9.62036087E-09-7.61638053E-06
 6  9-8.96729047E-08 7.70605344E-06 9.57623556E-06 4.11326934E-09-4.21983459E-09
 6 10 1.00066783E+00 4.62339853E-03-1.24538774E-02 8.83791631E-04-4.00663175E-04
 6 11 3.30526598E-08 6.11054359E-03-3.11833087E-03 2.87653514E-07 5.61995411E-04
 6 12 2.43985779E-05-5.86393989E-04-2.15248635E-04 7.84706704E-08 4.51512185E-08
 6 13 1.12132665E-04 1.36723601E-04-3.97287831E-03-3.18467643E-05 3.37428879E-06
 6 14-1.51554454E-08-2.04752939E-03 5.35829247E-04 4.23177978E-09 6.12273500E-05
 6 15-6.49105622E-05 3.68321216E-06 3.17130159E-05 1.43614446E-08-2.38807479E-10
 6 16 1.15058281E-02-6.17689654E-04 8.48168876E-03 3.71999883E-05-3.48338494E-05
 6 17 7.82842249E-09 6.36662921E-04 4.44007890E-03 4.76532070E-07 1.00238490E-05
 6 18-1.52387568E-04 1.42363719E-04 3.05620356E-05-1.95191426E-08-2.82186575E-08
 6 19-5.56513262E-02-6.29683960E-04 5.41985812E-03-2.14347779E-05-7.00321490E-05
 6 20-8.97990222E-09-2.37799132E-03-2.99265361E-03-4.43124456E-07-1.81447329E-04
 6 21-9.30139917E-05 2.74461321E-04 1.43086148E-04-3.07882678E-08-1.99962993E-08
 6 22-2.30427548E-04-1.24468885E-04 2.01968722E-03-3.37021316E-05-1.77997879E-05
 6 23-5.84033828E-09 1.41541112E-03-8.21701931E-05 6.44827894E-08 9.98594610E-06
 6 24 4.69260134E-05-5.69119595E-05 1.65251203E-05 9.78028950E-09 1.77156070E-08
 6 25-6.29316744E-04-5.36721806E-06-2.19224772E-03 2.64972564E-05 6.83705971E-06
 6 26-1.88935286E-09 9.73978061E-04 1.12202808E-03 1.91474038E-07 3.84109653E-05
 6 27 6.47852743E-05-1.03196240E-04-8.21722747E-05 3.22407283E-09 8.50250761E-09
 6 28-8.55138747E-05-1.04972020E-04 1.80431941E-04-6.25388338E-06 1.24837099E-05
 6 29 1.11074625E-08 4.01858569E-04-2.74785947E-04-6.38641096E-08 7.51367836E-05
 6 30-3.47659271E-05-4.03708566E-05-2.81307003E-05 1.55967083E-10 5.47698683E-09
 6 31-7.98052112E-04 5.53420068E-06-7.76113977E-04 8.29487651E-06 9.18625332E-06
 6 32-4.10464476E-09-5.82017690E-04-3.39665425E-04 2.79186962E-08-3.49402753E-05
 6 33 5.72446402E-05-2.23043649E-05-2.61099420E-04 1.80965149E-08 1.50246553E-09
 6 34 2.52296807E-04 1.15563811E-03 2.92603849E-05 6.50350596E-05 6.84764276E-09
 6 35 2.77098596E-05 3.32152999E-04-2.41826643E-05 2.37652171E-06 4.36974688E-10
 6 36-5.26054394E-05-1.94940052E-04-8.02128851E-06-1.00488761E-05-4.97277015E-09
 6 37-5.48447484E-05-1.06467365E-04-4.33600373E-06 1.48025960E-05 6.10845101E-09
 6 38 5.94552110E-06-8.94107401E-05 6.17949967E-05 7.76648026E-06 2.23167074E-05
 6 39 5.91430475E-06-8.93281237E-05 6.17946357E-05 7.76601330E-06-2.23334187E-05
 6 40 1.55594079E-04 1.97143671E-04 5.09226704E-05 4.31394276E-06-4.94059589E-09
 6 41-9.50993472E-05 2.56518825E-04-6.53025780E-05 5.91880485E-05-5.52963938E-09
 7  1 2.16456264E-04 6.20276004E-04-1.29492599E-03-6.87031569E-05-3.48537555E-04
 7  2-2.92153551E-09 7.34087389E-04 1.13078069E-03 2.91218122E-08 4.01730168E-05
 7  3-2.53723073E-04 2.13550056E-04 2.68391697E-05-5.54920428E-09 3.65521614E-08
 7  4-4.68894322E-05-8.09405054E-05 4.60013256E-04 2.56472000E-06-4.89822735E-06
 7  5-4.84064905E-09-6.85243880E-05 1.03262900E-05 1.43867158E-08-4.11262318E-06
 7  6 1.35683514E-05-9.45572827E-06-2.48080308E-06-1.75977586E-09 4.10837286E-10
 7  7 1.98955256E-05 3.62260769E-05-2.43302041E-04-6.92744198E-06 1.57067597E-06
 7  8-9.87280273E-10-4.19243206E-05-1.43424736E-06 7.69607215E-09 2.21192245E-06
 7  9 4.87928095E-06-7.09120340E-06 1.74694340E-06-4.31787193E-10 3.87150020E-09
 7 10 7.05255199E-04-1.32933376E-04 8.36185364E-04 2.57342654E-05 5.91697333E-05
 7 11 6.45924272E-09-1.82918026E-04-3.69489536E-03-2.37228803E-07 7.17276558E-06
 7 12 1.32695506E-04-1.39868271E-04-2.32268389E-04 3.14803775E-08-1.81926366E-08
 7 13-4.81496160E-05-7.64447260E-05 4.44627780E-04-6.05377114E-06-4.90273986E-05
 7 14 3.00547702E-09 1.73768953E-03-1.53090491E-04 7.59373677E-08 7.93451496E-05
 7 15-3.21887615E-05-4.71563882E-05-4.10485369E-05 1.05363974E-08-6.78591008E-09
 7 16 8.03627681E-05 2.28922691E-04-3.41926731E-03 1.97297289E-07 4.97754740E-05
 7 17-2.04677565E-09-6.96277195E-04-7.62261759E-04-1.66309781E-07-5.62401984E-05
 7 18 1.13979733E-05 4.48422251E-05 1.22288908E-04 9.18659249E-09 1.63218178E-09
 7 19-2.17559358E-04-2.57765253E-04 3.86979085E-03 4.08644757E-05-4.18115571E-05
 7 20 1.89613983E-09-1.38756932E-03-9.15604156E-04-2.22488356E-07 2.50529870E-05
 7 21-3.48202986E-08-2.50181667E-05-1.26407069E-04-7.61591750E-09-3.50763625E-09
 7 22-1.76859872E-05-2.54637542E-05 2.84336397E-04 2.15597209E-05 3.70542710E-05
 7 23 7.25232075E-09-2.44169025E-04-2.53224172E-04-3.02883429E-08 5.33567958E-06
 7 24 9.76208229E-06-1.50977619E-05 5.31647670E-05 6.78966984E-09 2.37312895E-09
 7 25 1.57286065E-05 2.80394685E-05-1.32488110E-03-7.65469649E-05 3.26133599E-05
 7 26-1.86910941E-09-4.81592552E-04 8.44598861E-04 3.75875741E-08-5.06465310E-05
 7 27 9.08765448E-06 4.15588765E-05 3.19702784E-05-3.35255472E-09 1.13475623E-09
 7 28-1.70723347E-05-2.08793305E-05 9.05510554E-04 1.10395449E-05-2.71777655E-07
 7 29-3.26386494E-09 1.05952248E-04 5.10331717E-04 1.08408873E-07-2.91912385E-06
 7 30 2.13693497E-05-1.84502258E-05-4.41469769E-09-6.71688085E-09 1.25061776E-08
 7 31 1.00224318E+00 4.49811294E-03-7.71595136E-03-1.72331717E-04 9.60312405E-04
 7 32-1.08091536E-07 8.55433645E-04-6.59012256E-05 7.00066796E-08-3.07238050E-05
 7 33 3.23570648E-05-1.63325981E-06 3.91516041E-05-5.27643339E-08 2.45477221E-08
 7 34 7.98160799E-05-1.75111765E-04 1.04703922E-04-2.30567549E-05 2.77124816E-08
 7 35 6.53582443E-06-7.22954681E-05 5.72148614E-06-7.60773780E-06-8.17541688E-10
 7 36-2.15460606E-05-1.92209990E-04 3.39176776E-05-1.88842122E-05-2.97865520E-10
 7 37 1.35119272E-05 1.09421923E-04-1.30742525E-05-1.86379227E-05-2.72929993E-09
 7 38 2.46059980E-04 1.33507217E-03-1.80008596E-04-1.25333074E-04-1.91979999E-04
 7 39 2.46041535E-04 1.33500927E-03-1.79983709E-04-1.25340139E-04 1.92002043E-04
 7 40 3.94099785E-05 7.95213728E-04 2.54635241E-04-9.36138304E-05 2.42116910E-08
 7 41-7.19687279E-05 1.39802196E-04-2.26410321E-05 3.79661953E-05-2.14874761E-09
 8  1-2.28489413E-05-5.23958376E-05 2.26653085E-04-6.10873495E-08-1.83753198E-05
 8  2-1.59102716E-09 9.30107284E-06 3.98738650E-04 3.74808055E-08 2.55140575E-05
 8  3 1.84909701E-06-2.73631545E-05-2.17094385E-05 3.50365911E-09 3.17777515E-09
 8  4-2.66061255E-06-5.83463564E-06-1.00349874E-04 1.06913533E-05 3.23974032E-06
 8  5-1.45954244E-09 7.58354120E-06-5.82979923E-07 1.09108719E-08-5.63339895E-06
 8  6 1.87668387E-06 3.75671508E-06 2.60434970E-06-6.65088352E-10 1.39284134E-09
 8  7 1.16284898E-05 2.01221009E-05-3.05807116E-04-1.91671742E-05 1.47061159E-05
 8  8 2.67146951E-09-6.62969738E-05 1.26772406E-05 2.52669469E-08 8.09869907E-07
 8  9 1.92840211E-06-2.73827202E-06 1.20642276E-05 7.58366503E-09-1.17007414E-09
 8 10-1.23879501E-02-3.99452582E-04 2.51413802E-03 1.22293899E-04 2.58626403E-05
 8 11 1.73232780E-08-2.45635054E-03-1.58239290E-03-3.30528066E-07-2.16418789E-04
 8 12-1.60669531E-04 3.77088320E-04-9.85354575E-05-7.47227501E-08-7.27311736E-08
 8 13 4.34579322E-02-7.23892010E-05 1.87215289E-03-9.46179709E-05 1.03423939E-05
 8 14-8.18562661E-09 2.92281232E-03-8.91523373E-04 1.58625772E-07-1.16538436E-04
 8 15-1.90029504E-04 3.06567941E-04 4.24336491E-05-2.87006756E-08-6.04611669E-08
 8 16 1.00124604E+00 4.75316464E-03-1.23055025E-02 1.59776472E-04-7.77172561E-05
 8 17 5.31209248E-08-4.31589712E-04-2.15645257E-03-3.65975564E-07 2.00167160E-04
 8 18 3.31665179E-04-5.31832340E-04 1.24029148E-04 8.22695198E-08 1.07829599E-07
 8 19 6.61266762E-05-1.60118480E-04 1.05691435E-03-7.96155574E-06-1.95013674E-05
 8 20 6.05076036E-10 5.51510678E-04-1.19816119E-03-8.41034058E-08-7.36927038E-06
 8 21 1.36027183E-04-1.28657913E-04 3.92141195E-05 1.79750150E-08 2.92149125E-08
 8 22 4.16940575E-03-7.27241974E-05 5.04990940E-04-9.20475781E-06-3.00778474E-05
 8 23 7.10649819E-10-6.27364714E-04-4.65661188E-04-1.10572546E-07 2.55381918E-06
 8 24 9.97968574E-05-1.02350677E-04 3.71918326E-06 7.22403572E-09 2.17564173E-08
 8 25-9.52796697E-04-1.23157826E-04 1.04961240E-03 3.06345156E-06 2.38977705E-05
 8 26 3.10514164E-09 1.87052039E-04-3.78064930E-06 2.80561836E-08-6.96054345E-06
 8 27 2.78830148E-05-2.09224714E-05-1.22122657E-06 1.99459448E-09 4.76575483E-09
 8 28-2.24469197E-04-1.08026890E-04 1.50861182E-03 1.46680196E-05 2.72455455E-05
 8 29 3.66255609E-09 2.47406716E-04 6.04313481E-04 8.78183325E-08 7.27507765E-05
 8 30 3.31487281E-05-1.05899505E-04-1.92994738E-05-6.08864385E-09 2.50738016E-08
 8 31 7.41461200E-05 9.94930177E-06 8.72733055E-05 1.73212176E-05 2.90527316E-05
 8 32-4.34522266E-09 2.10973602E-04 1.55420440E-04-1.23304306E-07 1.92785016E-05
 8 33 3.08155198E-05-5.00940214E-05-2.46726882E-05 1.50120065E-08-8.43732892E-10
 8 34-4.16862709E-04 9.71665787E-04-1.18653146E-05-5.00450517E-04-4.54574052E-08
 8 35-6.55215564E-05-4.85126872E-05 3.35736299E-06-1.06588501E-06 3.50961662E-09
 8 36-6.69991156E-05 3.99797985E-06-8.39801554E-07-1.64768128E-06-2.26942418E-09
 8 37-4.44416303E-05-2.45854277E-05-3.46532449E-05-3.15998808E-05-1.46996884E-08
 8 38 1.39732812E-05 3.66404095E-05 2.02608582E-05-4.22025196E-07 2.02083161E-05
 8 39 1.39741547E-05 3.69651948E-05 2.02662406E-05-4.00236331E-07-2.02347194E-05
 8 40-5.88026237E-05-9.95109958E-05 1.32442401E-05-1.38322908E-05 2.00665365E-09
 8 41 4.57850876E-05 6.34862346E-05-2.75969911E-05-1.09925872E-05-2.13090505E-09
 9  1 9.72240615E-06 1.74933845E-05-1.45640490E-04 2.51877488E-06-5.53858477E-06
 9  2 5.50939077E-10 4.36477056E-05 3.82463004E-05-1.72953670E-09-7.36056467E-07
 9  3-3.30626141E-07 1.06668261E-06 3.00877047E-08 8.35082602E-10 1.76368098E-09
 9  4-7.84853890E-06-1.77990579E-05-3.60132355E-05 7.90458096E-06 7.56318398E-06
 9  5 1.42119685E-09 2.20946984E-05-1.15743918E-04-9.31899824E-09 5.46000378E-06
 9  6-5.92542799E-06 4.65424205E-07-7.21070773E-07 8.87608315E-10-9.53093111E-11
 9  7 4.03791101E-06 5.65475282E-07-7.37608281E-05-8.63273602E-06 1.38333783E-05
 9  8 1.98888519E-09-1.27155147E-04-1.10032047E-04-1.23298240E-08-8.91537267E-06
 9  9 6.12617263E-06 2.78920004E-06-5.81108948E-06 3.59239131E-09 1.74493202E-09
 9 10 1.89188384E-04-1.46558034E-04 1.60625351E-03 2.85786877E-05-1.02741543E-05
 9 11 2.89834264E-09-9.77590383E-05 4.22124206E-04 1.39336686E-08 1.56114511E-06
 9 12 6.36398671E-05-6.52010122E-05-2.43420379E-07 4.81857124E-09 1.47986739E-08
 9 13 7.30321500E-02 9.98271315E-05 9.92194811E-04-4.21872885E-05-1.15813270E-04
 9 14-1.42636204E-08 8.13264938E-04 3.10664764E-03 3.68858218E-07-1.65548939E-04
 9 15-1.41097752E-04 3.06646691E-04 2.90415294E-05-3.00648132E-08-4.03149433E-08
 9 16-7.24733947E-03-1.76092989E-04 9.38670767E-04-2.79268409E-05-4.94248387E-06
 9 17 1.49761345E-09-1.16345295E-03-1.38334349E-04-1.15496137E-07 3.57636397E-05
 9 18 5.77920836E-05-9.35557233E-05-7.50534769E-05 8.24436260E-10 8.71075708E-09
 9 19-1.93173712E-03-1.09330859E-04-7.11558894E-05 2.61788409E-05-4.09149346E-06