 $SYSTEM MWORDS=3500 MEMDDI=471 $END
 $CONTRL MAXIT=200 SCFTYP=RHF RUNTYP=ENERGY ISPHER=1 UNITS=ANGS
  EXETYP=RUN COORD=UNIQUE ICHARG=0                   $END
 $BASIS gbasis=CCD                                   $END
 $SCF DIRSCF=.TRUE.                                  $END
 $SCF DIIS=.TRUE.                                    $END
 $SCF SOSCF=.FALSE.                                  $END
 $STATPT NSTEP=1000                                  $END
 $GUESS GUESS=MOREAD                                 $END
 $ELMOM IEMOM=0                                      $END
 $DATA
 silatrane HF/CCD local minima geometry
C1
Si    14.0    -2.09132123    -0.22596969    -2.25112152
N     7.0     0.54064143    -0.03311433    -1.80838645
O     8.0    -1.38519084    -0.05202532    -3.72966957
O     8.0    -1.65576494    -1.61207676    -1.47802079
O     8.0    -1.88033855     1.11517417    -1.29144526
C     6.0    -0.10930988    -0.49046490    -4.10306787
C     6.0    -0.60653281    -1.77485251    -0.55949038
C     6.0    -0.75072205     1.95445907    -1.29520655
H     1.0     0.06557548    -0.19000521    -5.13703394
H     1.0    -0.55395472    -2.83085179    -0.29081020
H     1.0    -0.90497422     2.73247313    -0.54712522
H     1.0    -0.06841303    -1.58287704    -4.06731367
H     1.0    -0.82321447    -1.20914769     0.34803373
H     1.0    -0.66412830     2.44221330    -2.26952052
C     6.0     0.95145500     0.11289562    -3.18667412
C     6.0     0.71515995    -1.32079661    -1.17260945
C     6.0     0.50356692     1.14887023    -0.97472882
H     1.0     1.04468966     1.17630851    -3.40833163
H     1.0     1.01851797    -2.04050803    -1.93358815
H     1.0     0.45818615     0.83994162     0.06862640
H     1.0     1.92901337    -0.34357002    -3.38750553
H     1.0     1.50094330    -1.31043923    -0.40701985
H     1.0     1.39580905     1.77693713    -1.09180033
H     1.0    -2.16824341     0.94692272     0.72904044
O     8.0    -1.90702188     0.84327102     1.63782287
H     1.0    -2.64818192     0.43738705     2.06271482
C     6.0    -3.91488338    -0.34564915    -2.55448079
H     1.0    -4.46789360    -0.34579748    -1.61165917
H     1.0    -4.15444136    -1.26797819    -3.08920360
H     1.0    -4.26180267     0.49876496    -3.15494370
 $END
--- CLOSED SHELL ORBITALS --- GENERATED AT Wed Jun 24 03:21:52 2015
 silatrane HF/CCD local minima geometry
E(RHF)=     -917.9850697728, E(NUC)= 1113.9036519722,   11 ITERS
 $VEC
 1  1 1.00004068E+00 2.76086029E-04 3.95525967E-04-4.04567964E-04 5.19810405E-05
 1  2 3.76508340E-06 8.25835994E-06 6.86945606E-05 7.68043373E-08 9.23978190E-06
 1  3-4.76612627E-04-3.99031270E-05-9.26931795E-05-9.72544425E-06 2.08580814E-07
 1  4 9.51686344E-06-3.03162605E-06-4.41552718E-06-6.63544610E-06 8.58614477E-08
 1  5 2.96560686E-07-3.82422134E-07 1.48852291E-07-1.42929681E-09 1.97587698E-07
 1  6-1.74081402E-05-3.08302042E-05 1.70063824E-04-4.17625713E-06-4.70207324E-07
 1  7-7.64745787E-07-2.19709918E-05 5.00253373E-07-5.63898032E-06 7.75269394E-06
 1  8-4.08100500E-06-3.67168894E-06 9.61929271E-07 2.33633192E-06 2.45764773E-07
 1  9 1.82076666E-05 2.81032540E-05-1.08686934E-04-2.72360130E-06-3.40495458E-06
 1 10-2.30566226E-06 5.42576709E-05 4.71396274E-05-1.11577401E-04 4.53842525E-06
 1 11 1.66483283E-05-2.11867535E-05 2.08966489E-06 2.14030952E-05 8.29190891E-06
 1 12 1.75847925E-05 2.68547531E-05-1.05237735E-04-3.31002562E-06-5.51650575E-07
 1 13 3.01787952E-06 3.79029727E-05-1.19631065E-04 2.85764148E-05 1.22979738E-05
 1 14-1.89184327E-05 6.62045889E-06 1.06432978E-05-1.20875426E-05 1.98116893E-05
 1 15 1.62343786E-05 2.48606415E-05-8.67872540E-05-2.65309741E-06 2.33530218E-06
 1 16-1.81232249E-06 1.20139876E-05 7.36299054E-05 9.03596249E-05 1.24831336E-05
 1 17-1.24809082E-05-2.22538812E-09-9.21286235E-06-5.26261185E-08-2.58751914E-05
 1 18-2.74094466E-05-4.86693105E-05 1.45419326E-04 3.55181403E-06 3.59276194E-06
 1 19-9.86455005E-06-2.50492550E-05-3.67707230E-05 1.97167575E-04 6.07697857E-06
 1 20-1.13652296E-05 5.28825108E-06 5.15776407E-06-1.60436986E-05 5.89840045E-06
 1 21-2.86238078E-05-5.09747981E-05 1.51929819E-04 2.37700006E-06-1.07761698E-05
 1 22 2.82956589E-06-1.56719545E-06 1.92554297E-04-6.63840426E-05 2.00164231E-06
 1 23-1.93030099E-06-7.13413181E-08-1.29828784E-05 5.45557414E-06-1.52692134E-05
 1 24-2.63041392E-05-4.67648917E-05 1.42295144E-04-3.07362958E-07 7.48001506E-06
 1 25 8.92666918E-06 3.05576575E-05-1.47346431E-04-1.28404934E-04-2.44947297E-06
 1 26 9.82281398E-06-7.37334101E-06 8.51457748E-06 1.13277764E-05 9.01790414E-06
 1 27 1.96888122E-05 7.23874351E-05-2.64779368E-07-9.10384066E-09-3.81944722E-06
 1 28 1.92499518E-05 7.35955924E-05-6.99366909E-07-3.07453828E-06 1.83442832E-06
 1 29 2.08402696E-05 6.70280331E-05-1.04463659E-06 2.97535444E-06 2.30850977E-06
 1 30-2.56909289E-05 2.22370808E-05-4.15584584E-07 7.67849173E-06-7.53260301E-06
 1 31-2.66719532E-05 1.66662889E-05 1.90390744E-07-1.03699264E-05-2.13666746E-06
 1 32-2.74936536E-05 2.07778128E-05-3.14152265E-06 1.94679427E-06 8.93825613E-06
 1 33-3.85089394E-06-8.07166234E-06-6.60098080E-05 7.59441408E-06-2.34975841E-06
 1 34-5.20524260E-07 1.15486798E-05 9.34497302E-05-1.28865485E-05-4.46824793E-08
 1 35-1.79495897E-06 1.83964145E-06-3.61813929E-06 3.41921769E-07 6.78532021E-07
 1 36-4.68289738E-06-9.59111949E-06-6.02385335E-05 6.96099963E-06 5.98982508E-07
 1 37 4.52461086E-06 2.51978073E-05-5.55011792E-05-7.17405709E-05-1.47307402E-06
 1 38 3.64084617E-07 1.10898940E-06 2.92041000E-06 2.43058558E-06-2.24016784E-06
 1 39-5.61828237E-06-1.11643335E-05-4.73415580E-05 7.27733890E-06 3.66566791E-06
 1 40-2.69513710E-07-6.31060161E-06-3.24070915E-05 9.23436956E-05 1.06146343E-06
 1 41 2.06118084E-06-3.12264427E-06 9.46161323E-07-3.42640990E-06 6.72063403E-07
 1 42-8.39918652E-06-4.11705830E-05 1.79592151E-06 2.71726972E-07 1.26289806E-06
 1 43-8.72219294E-06-4.01484974E-05 2.22576142E-06 1.07658485E-06 7.59355614E-08
 1 44-9.59933656E-06-4.76408714E-05 2.48099843E-06-7.88672622E-07 6.14534738E-07
 1 45 1.12562263E-05 2.04791631E-05-3.09009722E-06-6.05701015E-06 3.04264991E-06
 1 46 1.15327465E-05 2.48975686E-05-4.05221361E-06 5.77717057E-06 2.42303104E-06
 1 47 1.03158988E-05 2.36442762E-05-1.48295423E-06-2.98031894E-07-7.46757582E-06
 1 48 2.66772533E-06 2.12151474E-05 2.23331038E-06-7.05738706E-06 3.13416169E-06
 1 49 1.20126331E-06 2.08622832E-06-1.19871517E-05-9.54176432E-08 7.02626495E-07
 1 50 1.18932987E-06 3.84905617E-06 2.84691363E-07 3.31993743E-06 4.72827866E-07
 1 51 8.40160261E-07-1.31298813E-06-6.17865523E-07-3.38533795E-07-1.11221034E-06
 1 52 3.54921524E-06-6.09558418E-06 3.33325871E-07 3.54398775E-07 4.07051256E-07
 1 53 4.00669487E-05 6.51796583E-05-2.88260836E-04-1.47478183E-05-1.44916297E-06
 1 54-3.02604287E-06-1.91103521E-04-1.00710164E-05-2.53477588E-05-4.62584644E-05
 1 55 2.39589232E-05 2.22995411E-05-5.53364651E-06-1.33836452E-05-4.73233369E-07
 1 56 8.87899233E-06-4.04506869E-05 8.25146054E-06 3.04693062E-07 5.13072222E-06
 1 57 1.11122914E-05-3.82496439E-05 9.11263032E-06-2.43899289E-06-4.91470556E-07
 1 58 1.01033055E-05-3.71345808E-05 9.20659885E-06 3.10244690E-06-9.60500408E-07
 2  1-2.50462925E-05-1.33201261E-04-3.40781816E-05 1.96586550E-03 1.48102159E-05
 2  2 1.89978284E-04 1.32276082E-04 6.02861249E-05 5.34870613E-04 3.71619660E-04
 2  3 1.33977110E-03 6.63141518E-04 9.93865913E-04-2.93549582E-04 3.91815147E-04
 2  4-9.82655651E-05 1.91388789E-04 2.41793435E-04 2.37322906E-04-2.91130294E-05
 2  5 2.00797604E-05 9.03326901E-06 6.78640113E-06-1.14692977E-05 5.51921535E-05
 2  6 7.70987283E-05 1.37702673E-04-3.26386421E-04-7.42258123E-06 1.08692392E-05
 2  7-3.43750567E-05 4.00496161E-04-1.39745232E-04 2.47128560E-05-5.72342345E-05
 2  8 3.52300551E-05 2.20041793E-05 3.97820811E-05 1.85977113E-05-1.33419477E-05
 2  9-2.57530817E-04 9.25864930E-05-1.45723401E-04 1.06409923E-05 4.24601230E-05
 2 10 4.78566505E-05-7.46494452E-05-2.85552811E-04-1.79112723E-04 1.44535110E-05
 2 11-1.14545301E-05-2.99898082E-06-4.70043077E-06-1.40555113E-05-3.66849521E-05
 2 12-1.56445710E-04 1.34869648E-04-3.54875321E-04 1.16656662E-06 3.48246238E-05
 2 13-2.27655118E-06 6.55359625E-05-3.14969753E-04 1.03200407E-04 1.75318643E-05
 2 14-2.50764515E-05 7.54458715E-06-1.29796730E-06 3.94292349E-07-6.22972433E-06
 2 15 1.00143238E+00 2.21108849E-03-6.80479745E-03 9.56778059E-04-7.80049189E-05
 2 16-5.20438882E-04-1.33617710E-03 3.55924425E-04 8.84702386E-04-2.63800242E-05
 2 17-3.59019522E-05 6.22819764E-05-1.12835138E-04 3.22921796E-05-9.09832392E-05
 2 18 3.87190764E-05 7.65440769E-05-1.46438721E-04 1.16051539E-05 8.83967695E-06
 2 19 3.11295514E-05 5.36261351E-05 1.71092067E-04-1.40993253E-04-7.57513893E-05
 2 20 4.94972802E-05 2.62541091E-05-1.91395226E-05-1.38935501E-05 2.59800716E-05
 2 21 9.99363596E-05 1.82561398E-04-6.76509266E-04-1.55674736E-05 3.86916671E-05
 2 22-2.28872723E-05 1.65083046E-04-2.68378869E-04 2.28627727E-04 2.05097944E-05
 2 23-3.32342765E-05 1.27244821E-05-1.70135546E-06-2.45049019E-05 5.57562454E-06
 2 24-6.18023581E-06 1.19780061E-05 2.12635934E-03-3.14988858E-04-1.66286499E-04
 2 25-4.23328941E-05-4.92094234E-04-8.54410924E-04-5.98800198E-05-1.18847680E-04
 2 26 5.91283091E-05 5.97193712E-05-5.28948124E-05 9.18617884E-05 2.66310644E-05
 2 27-3.66831466E-05-8.66464502E-05-3.16043805E-08-2.29892048E-06-1.27326729E-05
 2 28 3.38804119E-05-9.10537557E-05-1.80274827E-05 1.22998024E-05-1.44884813E-05
 2 29-2.58372530E-04 3.13299020E-05 3.43344423E-05 1.05627222E-04 2.06911411E-05
 2 30 7.06916860E-06 7.49016296E-05-5.11597141E-06-2.03737975E-05 7.55273052E-07
 2 31 4.24672556E-05-4.13269847E-05 7.97307133E-06-7.58074260E-06 1.08015140E-05
 2 32-2.79448620E-04-2.46740415E-04 6.76846646E-05 1.31611796E-04-9.18107622E-06
 2 33 8.80284862E-05 1.70263516E-04-2.58308456E-04-6.18038645E-05 1.69661567E-05
 2 34 3.20861075E-05 3.77669829E-04-3.12606744E-04-1.92479848E-04 2.87334540E-05
 2 35-1.50124174E-05-1.37210365E-05-3.81782347E-06-1.89168615E-05 3.11696227E-05
 2 36 2.08623557E-05 3.90629664E-05-4.45735917E-05-1.47969023E-05-7.93727579E-06
 2 37 2.59172715E-06-9.70492217E-05-5.64390610E-05 9.24772381E-05 5.59630331E-06
 2 38-1.65439167E-05 1.09476134E-05-2.15644696E-05 2.27414224E-06 3.28598955E-05
 2 39-3.75868454E-05-9.15272291E-05-5.27319382E-04 1.49801714E-04-4.53316874E-05
 2 40 1.54796017E-05 8.61396818E-05-3.60190680E-05-1.13788329E-04-3.75807485E-05
 2 41 5.76128213E-05-2.00320728E-05 7.41046126E-05-6.32646873E-06-3.16898099E-08
 2 42 1.28490870E-04 5.32072728E-05-2.97330581E-05-1.05042986E-06 1.91247089E-05
 2 43-6.64097273E-06 2.22942014E-05 7.82145207E-06-1.03874881E-05-7.27960908E-07
 2 44 1.91106566E-05 3.34231047E-05 8.32448587E-05 4.75948990E-06 7.75902645E-06
 2 45-8.77940381E-05-2.56583410E-04 3.61429240E-05-4.44729628E-06 6.84176111E-06
 2 46 4.75808887E-08-2.14169208E-05 1.56385901E-05 8.08633515E-09-3.65720904E-06
 2 47-2.46725201E-05 1.98408895E-04-1.04334760E-05-5.92956965E-06 5.14116216E-06
 2 48-2.39396608E-05-4.02649464E-04-8.68702381E-06 1.27583512E-05-9.12273543E-05
 2 49-2.37195177E-04-2.29959922E-05 2.29650339E-04-2.06169403E-06-3.72377805E-06
 2 50-2.84974706E-05-6.78708280E-05 1.75911632E-05-1.85522007E-05 1.14520122E-06
 2 51-1.06106259E-05 9.46542470E-06 9.59547351E-07 1.02726121E-05-8.69348927E-06
 2 52-4.42218057E-05 5.58075599E-05-1.66026613E-05-1.27546107E-05-9.35211891E-06
 2 53 5.93367916E-06 1.04848956E-05 2.16266568E-04 4.31916798E-07 2.03295272E-05
 2 54 2.96861185E-05 1.50740647E-04-6.70050854E-05-1.56347774E-04 3.38814575E-06
 2 55-1.89675057E-05 1.55793600E-05-6.96467036E-06 1.30218257E-05-1.85635968E-05
 2 56 5.04378075E-05 2.54275345E-05-2.50943631E-05 4.38685794E-06-1.26056911E-06
 2 57-4.09827473E-05 2.22237408E-04 2.21812692E-05 1.69004130E-06 2.08900359E-05
 2 58-1.17691003E-05 5.00190519E-05-1.03150680E-05 2.02628129E-05 9.63199674E-06
 3  1-1.68056270E-05-7.22902637E-05 4.07948184E-05 1.73889054E-03 9.29183593E-05
 3  2 2.21867732E-05-2.21309078E-04 2.74617204E-04 6.23289685E-05-6.07438115E-04
 3  3 1.67282815E-03 3.16354271E-04-4.44627573E-04-8.17761020E-05-1.26179724E-04
 3  4 2.07955826E-04 7.96428893E-05-4.45328592E-04 1.22172337E-04-1.92699952E-05
 3  5-3.18130458E-05 5.10830410E-05-6.02649662E-06-3.41759798E-05-2.32403176E-05
 3  6 6.75813990E-05 1.19325428E-04-3.02545908E-04-5.09144919E-06-3.10204007E-05
 3  7 1.44712719E-05 3.31607353E-04 2.16281816E-05 1.49050736E-04-2.63704804E-05
 3  8 3.13417761E-05-4.97129569E-06-3.29206998E-06-5.96009747E-05 1.54428421E-05
 3  9 1.00141539E+00 2.19289297E-03-6.61452416E-03 8.23529868E-04-4.88294761E-04
 3 10 6.08048881E-04-9.94758288E-04 6.02471502E-04-1.05661409E-03-5.80449776E-05
 3 11 9.22898731E-05-3.42448955E-05 7.68105080E-05 8.55535931E-05 2.15477084E-05
 3 12-1.07574181E-03 9.58286359E-05-1.66747807E-04 2.44985398E-05 1.73807712E-05
 3 13-5.25717504E-05-1.29627652E-04-2.96757695E-05 3.10251333E-04 5.30661283E-06
 3 14 1.84337826E-05-2.37403954E-05-1.07564463E-05 2.67313463E-05 1.04683691E-05
 3 15 3.70018245E-04 1.19339328E-04-3.03522965E-04 1.50873927E-05-1.95413117E-05
 3 16-2.13595816E-05-3.25808015E-05 2.23180365E-04 2.02026701E-04 1.36650149E-05
 3 17 4.87148119E-06-1.85364961E-05 5.78388545E-06 1.45312427E-05-1.28756232E-05
 3 18 1.82189956E-05 5.28687563E-05 2.07864025E-03-3.37297079E-04 6.31023742E-05
 3 19 6.29350628E-05-6.15027421E-04 1.50041715E-04 5.25397062E-04-1.38755839E-04
 3 20 6.61967255E-05 7.25591131E-05 1.14405328E-04-3.83435265E-05 8.73263961E-06
 3 21 4.24572655E-05 8.36542618E-05-1.47480159E-04 1.92830295E-05 2.61044469E-05
 3 22-1.87448694E-05 1.18463079E-04-2.32226147E-04-1.86152959E-05-7.23202884E-05
 3 23 1.46076872E-05 5.77126012E-05 3.03947242E-06-3.32490526E-05-3.79196246E-07
 3 24 8.19906261E-05 1.49815230E-04-5.07031168E-04-1.45020019E-05-3.94604592E-05
 3 25-2.21936349E-05 1.20202449E-04 3.57914116E-04 5.27110459E-05 1.60999277E-06
 3 26-6.85496736E-06 5.24497459E-06-8.13969941E-06 1.76334909E-05-3.95680751E-05
 3 27-2.29886363E-04-6.82726892E-05 6.50377441E-05-1.65564596E-05-9.82247461E-05
 3 28-4.13890938E-05-1.00206642E-04-5.12569513E-06-1.10802835E-05 5.54690123E-06
 3 29 2.87861161E-05-7.39455537E-05-1.43453523E-05-2.16746957E-05-5.04637705E-06
 3 30-3.25265812E-04-3.45447177E-04 9.00355376E-05-8.97739558E-05-7.90294889E-05
 3 31 1.30167317E-05 3.28767341E-05-1.09113457E-05 1.27551893E-05 1.67236855E-05
 3 32 1.82489004E-05-2.07150314E-04 1.28102172E-05 2.87407622E-05-5.89929512E-06
 3 33-4.95895263E-05-1.12648803E-04-3.92117756E-04 1.33238172E-04 2.06681725E-05
 3 34 6.59367180E-05 1.16892565E-05 4.41151320E-05 3.05812434E-05 2.21673038E-06
 3 35-6.30235531E-06 4.08562494E-06-5.51781885E-05-6.92063278E-05 2.81531180E-05
 3 36 8.81276070E-05 1.70110276E-04-2.78667933E-04-5.09215993E-05 1.84921734E-05
 3 37-4.47265708E-05 2.87173685E-04-7.72024696E-07 4.53901503E-04 1.82629050E-05
 3 38-2.96214594E-05 1.13585544E-05-1.15685213E-05 1.48208719E-05-1.46856619E-05
 3 39 1.94014710E-05 3.60510185E-05-1.10347523E-05-1.15960253E-05 1.97563617E-06
 3 40-1.97946680E-06-1.20952512E-04 7.07189944E-05-3.48218932E-05 1.36639462E-06
 3 41-1.46495758E-05 1.32831812E-05 1.43729100E-05 7.04097936E-06-1.84933048E-05
 3 42 1.20119091E-05-8.98243156E-05 7.90597797E-05 5.57541460E-06 1.61102131E-05
 3 43 1.28330542E-04 6.42426235E-05-2.72228786E-05 1.63202757E-05-1.98403563E-05
 3 44-3.91494688E-06 2.90224548E-05 5.76341338E-06 7.80034307E-06 5.35089825E-06
 3 45-2.73024518E-05 2.18894533E-04-7.69382483E-06-1.54333527E-06 7.19385969E-06
 3 46-8.77688979E-05-2.72766386E-04 3.25255279E-05 3.79110136E-06 1.28050025E-05
 3 47 1.00464288E-06 2.59981195E-05 1.01850966E-05-6.28929871E-06 4.69684313E-06
 3 48-4.08943341E-06 5.22115933E-05-1.95474216E-06-2.38155559E-06 2.19410324E-05
 3 49 9.85264074E-06 9.18909522E-06-5.24070412E-05 4.73045460E-06 5.19215066E-07
 3 50 4.45307139E-06 8.12741591E-07-2.96865414E-07 1.04475676E-05 1.85539517E-07
 3 51 2.14302261E-06-2.32856213E-06 5.98056978E-07-2.63847519E-06 5.84854136E-07
 3 52-2.83832451E-06 1.28849942E-05 4.32973321E-06 8.59076725E-07-2.99485236E-06
 3 53-1.40018049E-05-2.60611986E-05 3.55123682E-04 2.60398170E-06 1.00775653E-05
 3 54-2.57326023E-05 1.69565168E-04-1.95319111E-05 1.28615268E-04 3.20866345E-06
 3 55 1.73513439E-05-2.05600074E-05 1.76739550E-05 8.55436774E-06-5.70051298E-06
 3 56-3.77535851E-05 2.30457850E-04 2.04523048E-05 8.56959277E-06-4.16445584E-06
 3 57-1.27349234E-05 8.90651954E-05-5.42225160E-06-2.73636089E-06-1.57802055E-05
 3 58 2.38942642E-05 4.77056885E-06-2.43917654E-05 3.34464911E-06-1.18306754E-05
 4  1 1.01396228E-05 7.03550790E-05 7.76084081E-05-6.76181476E-04-1.68870357E-06
 4  2-1.72769967E-05-5.49761363E-06-5.48162676E-06-5.18524889E-05-9.74541981E-06
 4  3 4.02587787E-04-1.00252190E-04-4.84724387E-04-3.77002595E-06-1.46129312E-04
 4  4 1.49899338E-04-5.45520407E-05-5.43202338E-05-3.02237786E-05 2.53429088E-06
 4  5 9.54757178E-06-1.20818627E-05 5.40681764E-06 2.93381341E-06-1.61725310E-06
 4  6-1.17016053E-05-2.23054096E-05 1.45299538E-05 1.17140692E-05-4.21601729E-06
 4  7-2.53612513E-06-5.96696036E-05-2.17449039E-05 4.83429669E-05 1.81344877E-06
 4  8 2.15459690E-06-3.96804566E-06-2.25286130E-06-4.58195001E-07-3.03874379E-06
 4  9-1.54657100E-06 1.12275627E-05-7.00124279E-05-4.36232529E-06-6.14317719E-06
 4 10-9.16743534E-06 1.00078069E-04 3.60194517E-05-4.31680010E-05 2.09277053E-06
 4 11 2.39984158E-06-4.49261211E-06-5.03440357E-06 5.57964325E-06 1.03369591E-05
 4 12-2.84813049E-03-2.93258693E-05 8.46993899E-05 1.91509282E-05-1.12702169E-05
 4 13-7.59061791E-06-1.56933520E-04 8.21587232E-05-1.33862827E-05-1.83232557E-06
 4 14-3.30206008E-06 5.13438565E-06 5.20559212E-07-2.42430176E-07-2.02080700E-06
 4 15 2.11649119E-04-1.38847224E-05 2.74771212E-04-1.34918490E-05 5.31590585E-06
 4 16 1.03213908E-04 7.33372578E-05-7.66295264E-05-4.81579911E-04 1.29278948E-05
 4 17 5.27092432E-06-1.81988191E-05-2.04987665E-06-5.25273651E-06 9.09080914E-06
 4 18 1.99415792E-05 3.53284474E-05-1.87351283E-04-4.58324989E-06-3.21446545E-06
 4 19 2.88363867E-06 1.00434733E-04-6.01417920E-05-1.06080629E-04-9.28445957E-07
 4 20 1.45042034E-06-5.21974387E-07 1.24408204E-05 6.68309606E-06-4.93441347E-06
 4 21 1.55873382E-05 2.85837926E-05-5.50597022E-05-3.02972124E-07-1.87588899E-06
 4 22-1.72072134E-05 2.47261282E-05-7.56430173E-05-2.89416765E-04 1.42595782E-05
 4 23-4.60745117E-06-9.65212705E-06 1.04742844E-05 2.18827332E-05-2.88133963E-05
 4 24 3.22705099E-05 5.82197973E-05-1.35062139E-04-5.06874230E-06-9.82090326E-06
 4 25 1.82387552E-05 1.77760726E-05 2.44721662E-04 6.62809964E-05 3.36111121E-06
 4 26-7.80264048E-06 4.44152928E-06-2.24132573E-05-6.42848335E-05-3.12717299E-05
 4 27 4.12628689E-06-3.04357361E-05-5.00140695E-06 5.75994625E-06 1.02236090E-06
 4 28 5.94785769E-06-2.89837614E-05-6.75961660E-07 3.71005923E-06 2.05908651E-05
 4 29 5.25741168E-06-2.19032036E-04 1.64451287E-05 1.42930322E-05-8.58426595E-06
 4 30 1.52093599E-05-5.98912458E-05 1.97412383E-07-2.18738608E-06 4.18154182E-06
 4 31-3.44090059E-06 3.65281850E-04 1.87042563E-05-4.80431275E-05-5.34500754E-05
 4 32-5.67847165E-06-9.11178789E-06-1.59533859E-05-1.21051326E-05-1.97669104E-05
 4 33-8.22440828E-06-1.48338986E-05 1.03309309E-04 9.73220803E-07 2.99215890E-07
 4 34-5.96960135E-07-4.75776382E-05-9.43212826E-06 4.14755370E-05-3.78629477E-06
 4 35 2.96377296E-06 8.22521814E-07 3.04217173E-06 4.81781462E-06-6.73749592E-06
 4 36 1.31908596E-05 2.35716750E-05-1.31438111E-04-3.56915441E-06-2.58160066E-06
 4 37 6.47604347E-08 1.37112246E-04-2.07447851E-05 3.27302076E-05-4.69073283E-06
 4 38-4.94876649E-06 9.63949932E-06 6.95053256E-07-3.20227664E-06 1.50346385E-06
 4 39-1.03134308E-05-1.89524609E-05 1.12751465E-04-4.83732870E-06 1.08498992E-05
 4 40-4.71270865E-06-9.36672009E-05-1.33677824E-05-3.49095086E-05 1.35361203E-05
 4 41-2.14716383E-06-1.13889564E-05-4.00893601E-06-6.85940582E-06 1.14046215E-05
 4 42-9.74695611E-06 1.58296385E-06 9.90365728E-07 8.18409969E-07-5.52033256E-06
 4 43 4.32115793E-06-4.28482171E-05 1.42894528E-06-1.24059955E-06-9.62496588E-06
 4 44-2.15762783E-05-1.00173991E-05 3.53212205E-05 1.07197672E-05-2.14569962E-05
 4 45-1.81576548E-08 8.72757926E-06-2.61770398E-07 3.65731861E-06-1.54943539E-06
 4 46-2.59000197E-06-4.47977619E-05-6.22494765E-06 1.08081269E-06 5.20330585E-06
 4 47 7.88148671E-07 3.31205793E-05 2.18741075E-06-3.23544537E-06 6.29145812E-06
 4 48-1.69090911E-04 1.26659733E-03-1.56020352E-04 4.61772486E-05-6.20219906E-04
 4 49 1.00101391E+00 1.42606367E-03-3.22774514E-03-1.49002322E-03-4.70313468E-04
 4 50-6.73055652E-04 3.96457598E-04 7.64653140E-05 5.10736553E-04 2.12225238E-05
 4 51-8.58507431E-05 6.46282192E-05 8.33096672E-05-3.69948237E-05-7.16190554E-05
 4 52-2.39012021E-04 1.38260522E-04-6.38364746E-04-3.42871974E-04 3.20804122E-04
 4 53-5.94308516E-05-1.08100085E-04 4.44823609E-04-1.44659218E-05-5.57292536E-06
 4 54-1.93706989E-05 1.89139315E-04 2.59640385E-05 3.09541746E-04 9.66055022E-06
 4 55-9.24229952E-06-4.18250694E-07-6.27929342E-06 7.31176274E-07 2.49656969E-06
 4 56-6.14977361E-05-7.68101332E-05-8.70369423E-06-3.67783718E-06 1.64345350E-05
 4 57 4.78527286E-07 8.30575478E-05-8.44150610E-06 1.35384866E-05-1.59779741E-05
 4 58-9.46639032E-06 1.29367026E-04 2.07399544E-06-1.59111333E-05-1.46352439E-05
 5  1-2.19617250E-05-1.10010070E-04-5.65629269E-06 1.95127382E-03 5.10097452E-05
 5  2-2.04823703E-04 1.11857979E-04 1.58871921E-04-5.61041276E-04 3.12201140E-04
 5  3 1.57640714E-03-5.31630694E-04 6.07047052E-04-1.77166837E-04 8.59860698E-05
 5  4 9.11807673E-05-3.17068336E-04 7.47259935E-05-3.35223556E-04-3.23105574E-05
 5  5 4.68059120E-05-1.44953546E-05-1.33974589E-05 1.86782148E-05-3.82294363E-05
 5  6 7.33497242E-05 1.30341693E-04-3.17931786E-04-1.38959915E-05 2.95873129E-05
 5  7 1.71962835E-05 3.68607677E-04 8.47507861E-05 4.14349407E-05-4.31254686E-05
 5  8-2.05619950E-06 4.51816681E-05-4.89292515E-05 5.13624100E-06-6.47470750E-06
 5  9 1.18899750E-03 1.17397634E-04-2.84564894E-04 9.77257029E-06-8.51008274E-06
 5 10 3.59322232E-05 3.98648794E-05 6.11117424E-05-2.96229858E-04 1.60639626E-05
 5 11-3.92522341E-06-1.21387392E-05 3.30989646E-06-2.02982654E-06 1.91083528E-05
 5 12 1.00141577E+00 2.19962725E-03-6.64948165E-03 7.73613680E-04 7.34696532E-04
 5 13 3.47837169E-04-9.87197370E-04-1.18714604E-03-2.83207561E-04 6.73996147E-06
 5 14-1.83075911E-05 1.15676297E-05 1.92815462E-05-1.31481103E-04 6.74868199E-05
 5 15 2.97363359E-04 1.26539227E-04-3.25090852E-04 1.71690800E-05-5.48101455E-05
 5 16 4.54367672E-06-8.55259565E-05 3.16008752E-04-9.30244871E-05 7.43652118E-06
 5 17-2.63634950E-05 1.89269738E-05 2.05963964E-05-5.92061867E-06 1.95916017E-05
 5 18 8.70115001E-05 1.58975159E-04-5.67773791E-04-2.80226340E-05-2.99171990E-06
 5 19 4.01468390E-05 1.76529944E-04-1.10491796E-04-3.26829843E-04-3.25138366E-06
 5 20 2.84879246E-05-2.52365410E-05 1.27584857E-05 3.67317637E-06 2.06800405E-05
 5 21 2.18985583E-05 6.14471088E-05 2.00395667E-03-2.94965846E-04 3.81983694E-05
 5 22-1.83889017E-04-4.26798515E-04 3.93044896E-04-5.86174134E-04-8.01780005E-05
 5 23 6.23156539E-05 1.78623466E-05-7.47599385E-05-1.30662081E-04-3.10602561E-05
 5 24 3.51272968E-05 7.05150500E-05-1.24766659E-04 2.20743337E-05-2.91108461E-05
 5 25-1.45525512E-05 5.40702207E-05 1.11955204E-05 3.06191679E-04-6.49252646E-05
 5 26 5.07518029E-05 1.41734616E-05-1.27795270E-05-1.06053639E-05-2.13660319E-05
 5 27 2.05115600E-05-7.50524726E-05-1.87396377E-05 7.66523687E-06 1.52866294E-05
 5 28-2.19285919E-04-7.43633193E-05 3.65412861E-05-7.76671982E-05 7.93031931E-05
 5 29-5.62671309E-05-5.34913498E-05-7.90576236E-06 1.22183492E-05-1.94131888E-06
 5 30 3.10203598E-05-1.83812652E-04 1.62482280E-05-1.87483127E-05-1.19965929E-05
 5 31-3.19592129E-04-2.69446110E-04 4.84383152E-05-2.94710716E-05 1.31027783E-04
 5 32 3.27913410E-05 8.38976533E-05-2.45758970E-06 1.04738683E-05-1.14781667E-05
 5 33 1.30506330E-05 2.54580447E-05 6.72118958E-05-1.20559642E-05-1.56389210E-06
 5 34-3.53365786E-06-1.45856835E-04-9.29573654E-05-8.57121979E-05 8.19525725E-06
 5 35 2.01912410E-05-2.83864983E-05 4.14030921E-06-6.74474190E-06 1.31078747E-06
 5 36-4.32957911E-05-1.00966894E-04-4.32892796E-04 1.41167040E-04 4.06598717E-05
 5 37-9.43745415E-06 5.55398266E-05-1.64191040E-05-2.59923780E-05-3.90929169E-05
 5 38-1.80764550E-05 5.71693719E-05-2.90535791E-05 6.03600492E-05-2.78360671E-05
 5 39 9.80998814E-05 1.87384001E-04-3.83547324E-04-5.12714198E-05-5.07393232E-05
 5 40-1.01058097E-05 4.14745809E-04 3.89453317E-04-1.50905079E-04 6.65607262E-06
 5 41 1.24505558E-05-1.91066285E-05 2.24618500E-05 2.26529952E-05-9.85974673E-06
 5 42-4.68134689E-06 3.56010998E-05 1.09998562E-05 6.59784673E-07-7.38418878E-06
 5 43 1.37965233E-05-1.01583113E-04 7.89855999E-05 6.71261422E-06 8.27232211E-06
 5 44 1.35973985E-04 9.89271679E-05-2.76588264E-05-2.39926314E-05-1.24878863E-05
 5 45-3.66029757E-06 3.37675439E-05 1.06939377E-05 9.10054035E-06 6.78622261E-06
 5 46-2.73671057E-05 1.95039009E-04-4.55557006E-06 7.72494089E-06-3.75474453E-06
 5 47-8.51464161E-05-2.88049286E-04 3.15438988E-05 7.65293262E-06 2.71368061E-06
 5 48-3.28294951E-07-2.66989291E-04-2.90014556E-05 2.84310202E-05-3.09355137E-05
 5 49 2.81683510E-03-2.91501876E-05 1.35774842E-04-6.65594883E-06-1.11344404E-05
 5 50-1.20899847E-05 4.13562328E-06 2.80913202E-05-4.90634513E-05-5.78182991E-06
 5 51-5.81660643E-06 1.15984363E-05-1.63325883E-06 5.33787109E-07 1.79394376E-06
 5 52-4.30166571E-06 7.17827158E-05-1.34194086E-06-4.53652236E-06-1.00362586E-05
 5 53-2.13834614E-06-4.35330343E-06 2.77252607E-04 3.05081806E-06-2.39114291E-05
 5 54 1.01442362E-05 1.59978119E-04 8.17808602E-05-7.10658931E-05 1.16504387E-05
 5 55-3.76790651E-06-7.88253216E-06-8.22312353E-06-1.46775843E-05 2.11099771E-05
 5 56 8.66830592E-06 1.04808318E-04-8.18024686E-06-9.19932342E-06 3.89861687E-06
 5 57 1.51299014E-05-1.47750878E-06-2.07819509E-05-1.37616977E-05-7.99408169E-07
 5 58-3.45811024E-05 2.21664668E-04 2.04067024E-05-4.78258023E-06 6.64842710E-06
 6  1-6.77172643E-05-5.16581923E-04-6.66687607E-04 1.41470831E-03-8.28559208E-05
 6  2-6.76951034E-06-1.36903017E-05-1.91270506E-04-1.53136318E-05-3.16977759E-05
 6  3 1.68786113E-03 1.37525871E-04 3.45308390E-04 2.56022102E-04-1.15709409E-04
 6  4-1.40312693E-04 3.85728115E-05 8.22502972E-05 5.78158443E-06-4.90124663E-05
 6  5 2.42238661E-05 2.47886002E-05-6.99624566E-06-1.47204840E-05-9.20172500E-07
 6  6 1.00200948E+00 3.61130291E-03-9.55623732E-03 6.22165829E-04 4.51361764E-05
 6  7 9.14049003E-05-6.07540294E-04-5.24184461E-05-7.91754895E-05 1.37426260E-04
 6  8-7.10202211E-05-6.64060392E-05 1.75463297E-05 4.17795788E-05 2.88533254E-06
 6  9 2.91343211E-05 5.13120326E-05-1.23551729E-04 3.19075115E-06 2.76126693E-05
 6 10-9.27954433E-07-7.64236368E-05-1.57211578E-04-1.19065078E-04 1.26090508E-05
 6 11-5.42209438E-06-7.18695642E-06-2.10460697E-06-4.34993309E-05-2.38427883E-06
 6 12 3.40866315E-05 6.07153228E-05-1.55756406E-04 6.67206334E-06-1.27185569E-05
 6 13-2.04850637E-05-1.07446794E-04-4.39020402E-05 1.66293539E-04-3.03321160E-06
 6 14-3.58931839E-06 6.62252999E-06-3.44036972E-05 2.48473364E-05-1.00194266E-05
 6 15 3.95394331E-05 7.04109970E-05-2.13986152E-04 3.46480636E-06-1.05811170E-05
 6 16 1.75059196E-05-1.14260774E-04 1.59282019E-04-5.58491336E-05-1.17340488E-05
 6 17 8.93870459E-06 2.79534421E-06 3.77905881E-05 1.69381875E-05 9.82303120E-06
 6 18 2.57972742E-05 3.24241999E-05-5.24391408E-04-7.83469814E-05-2.54974736E-05
 6 19-6.10709793E-05 2.61207396E-04 1.44558311E-04-4.91507124E-04-2.79558018E-05
 6 20-6.59012236E-05 9.38570254E-05 5.20401681E-06-4.76602365E-05-4.56472904E-05
 6 21 2.92133657E-05 3.88925422E-05-5.38526863E-04-9.11666586E-05-3.58847445E-05
 6 22 2.49365254E-05 2.11439831E-04-5.04068428E-04 1.97666617E-04-3.83259617E-05
 6 23 8.89212974E-05-5.05953357E-05-2.05053250E-05 2.07707085E-05-6.33330064E-05
 6 24 1.98409061E-05 2.27592565E-05-4.74222931E-04-9.22326595E-05 4.40449649E-05
 6 25-1.31988516E-05 9.25788958E-05 3.49448749E-04 4.23315783E-04-3.63844042E-05
 6 26 3.44532110E-05 1.93119318E-06 6.35837967E-07-3.11353243E-06 1.13696272E-04
 6 27-1.24848160E-04-5.48506117E-05 2.10766108E-06 2.22343051E-05-1.60133680E-05
 6 28-1.19385067E-04-5.51777579E-05 3.48232730E-06-2.43534465E-05-1.34144137E-05
 6 29-1.34710112E-04-2.92975927E-05-2.72320078E-06 6.80784401E-06 2.31947162E-05
 6 30 1.30958677E-04-7.99937276E-05-2.97522315E-05 6.54934062E-06-3.77790346E-05
 6 31 1.32276349E-04-8.47345612E-05-3.44784269E-05-3.13706612E-05 3.59826946E-06
 6 32 1.38533968E-04-6.34817469E-05-3.73545256E-05 2.73202907E-05 2.38864639E-05
 6 33 4.10596298E-05 2.97664139E-05 2.34798827E-03-3.11715000E-05-2.03617131E-05
 6 34 2.18386342E-04-6.38873076E-05-1.57445298E-04 9.89217227E-04 1.32789938E-04
 6 35 7.66505834E-05-2.09440521E-04-3.67662616E-05 1.34332873E-04 3.09368701E-05
 6 36 4.13538881E-05 3.07319060E-05 2.31459643E-03 4.12451277E-06 1.99518283E-04
 6 37-9.24992538E-05 1.00226047E-04 9.31561045E-04-3.32241894E-04 1.44769213E-04
 6 38-1.69297047E-04 2.45278342E-05 7.56330772E-05 1.48348256E-05 1.57532568E-04
 6 39 4.65750453E-05 3.99529716E-05 2.25691689E-03 3.81786389E-05-1.82438529E-04
 6 40-1.21267678E-04 2.90248434E-04-7.51682521E-04-6.11079136E-04 1.64771411E-04
 6 41-1.35723378E-04-2.90480330E-05 1.78425717E-05-1.74553822E-05-1.76298397E-04
 6 42-2.29413143E-04-1.94017514E-04 2.97656933E-06 2.80589102E-05-6.18102466E-05
 6 43-2.25941410E-04-1.92695366E-04-3.42129684E-06-6.68789482E-05 4.88707174E-06
 6 44-2.18151686E-04-1.77886699E-04-1.83105443E-05 3.93905357E-05 5.56175544E-05
 6 45-3.19867530E-04-2.04882027E-04 5.42582897E-05-1.31726670E-05-8.01778645E-05
 6 46-3.19971723E-04-2.17386424E-04 3.47104900E-05-6.45301969E-05 6.44302846E-05
 6 47-3.18125201E-04-2.15282075E-04 2.67471267E-05 8.57218303E-05 3.70737847E-05
 6 48-1.55158262E-05-1.30293836E-04-1.96780266E-05 9.68518431E-06-8.17986821E-06
 6 49-1.11465138E-05-2.10819748E-05 6.51613730E-05-4.93070879E-06 3.76647209E-07
 6 50-1.60633494E-06 2.49984118E-05 6.19810901E-06-4.19615252E-05-4.78284476E-06