 $SYSTEM MWORDS=1200 MEMDDI=150 $END
 $CONTRL MAXIT=200 SCFTYP=RHF RUNTYP=ENERGY ISPHER=1 UNITS=ANGS
  EXETYP=RUN COORD=UNIQUE ICHARG=0                   $END
 $BASIS gbasis=CCD                                   $END
 $SCF DIRSCF=.TRUE.                                  $END
 $SCF DIIS=.TRUE.                                    $END
 $SCF SOSCF=.FALSE.                                  $END
 $STATPT NSTEP=1000                                  $END
 $GUESS GUESS=MOREAD                                 $END
 $ELMOM IEMOM=0                                      $END
 $DATA
 saccharin HF/CCD local minima geometry
C1
S    16.0    -1.61732650    -0.78135473     0.00019413
O     8.0    -2.09085631    -1.31576467     1.21825063
O     8.0    -2.08878255    -1.32718492    -1.21339726
O     8.0    -0.61058539     2.81017351     0.00483235
N     7.0    -1.79662418     0.86476642    -0.00682972
C     6.0     0.13342455    -0.63501525    -0.00001535
C     6.0     0.51749086     0.69169790    -0.00041025
C     6.0    -0.64299238     1.62605286    -0.00017414
C     6.0     1.05367601    -1.66576922    -0.00013552
C     6.0     1.85669959     1.04005039    -0.00040672
C     6.0     2.39833093    -1.31763196    -0.00005553
C     6.0     2.79570007     0.01819007    -0.00019759
H     1.0    -2.70351171     1.29171658     0.00731204
H     1.0     0.74226761    -2.70012331    -0.00011130
H     1.0     2.14679861     2.08042312    -0.00056194
H     1.0     3.14814115    -2.09663558     0.00008925
H     1.0     3.84984875     0.25840861    -0.00018311
 $END
--- CLOSED SHELL ORBITALS --- GENERATED AT Wed Jun 24 03:21:23 2015
 saccharin HF/CCD local minima geometry
E(RHF)=     -944.5530950531, E(NUC)=  824.2290741953,   13 ITERS
 $VEC
 1  1 1.00005901E+00 2.93512453E-04 4.16674390E-04-1.39949739E-03-5.43428980E-06
 1  2 1.45415943E-05-8.86877853E-08-4.64405555E-06-9.15779188E-06 1.62222941E-08
 1  3-4.13316817E-04-3.06200312E-04 5.42797998E-07-4.89455237E-05-1.29273053E-05
 1  4 6.18728290E-05 1.96797462E-05-1.28225158E-07 3.91399994E-07 6.91052288E-06
 1  5 1.78967505E-06-8.70019793E-06-2.61338403E-06 2.14503797E-08-4.63880007E-08
 1  6-1.42815050E-06-1.38379101E-05 2.18475082E-05-2.04649597E-05-2.19860581E-05
 1  7 2.56260469E-05 3.30937536E-05 3.29324386E-05 6.32520295E-05 1.81878999E-05
 1  8 2.05711959E-05-3.87590958E-05-1.20442895E-05 2.82541189E-05 3.13050053E-05
 1  9-1.30569154E-06-1.36105042E-05 2.09754449E-05-2.03937962E-05-2.22683414E-05
 1 10-2.54739369E-05 3.29626698E-05 3.22547825E-05-6.36569627E-05 1.82552888E-05
 1 11 2.00508831E-05-3.83061719E-05-1.22666751E-05-2.80317196E-05-3.19928727E-05
 1 12-8.54701413E-06-1.63481097E-05 4.71202605E-05-8.28612235E-07-5.02932070E-07
 1 13 7.40257370E-08 1.05305477E-05 6.64807351E-06-7.16267154E-08 3.96479391E-07
 1 14-3.70671813E-07-2.58075776E-08-1.59745887E-06-2.93029524E-09-5.73137977E-08
 1 15-9.02605397E-06-2.17598909E-05 1.29108434E-04 1.65683987E-07 1.05224917E-05
 1 16-1.64372632E-09-9.03008095E-05-1.73924876E-04 3.17160776E-07 1.53771004E-05
 1 17-3.61997318E-05 2.08226314E-05 3.12561840E-07-4.00475221E-07 1.86795773E-07
 1 18-1.86699579E-05-3.78798250E-05 1.42084620E-04 1.78643686E-05 8.10288198E-07
 1 19 2.33738667E-08-6.95917315E-04 1.19590580E-04-1.87030160E-07-3.67810067E-05
 1 20 2.54096617E-05 1.13713450E-05-1.07275510E-06-2.46622526E-08-2.58010246E-08
 1 21-1.46351948E-05-2.90290017E-05-1.29451931E-04 1.09160586E-05 8.42925266E-06
 1 22-5.45184039E-08 2.42811514E-04-1.99616621E-04 2.79772782E-07-5.39766067E-06
 1 23 1.11641355E-05-5.76647479E-06-1.83556352E-05 5.91320341E-08-6.95394863E-08
 1 24-3.12301905E-05-5.65432877E-05 4.24272332E-04-1.13533192E-06 9.06836931E-06
 1 25-9.13486941E-08-1.67764503E-05-1.98448752E-04-5.64207687E-07 2.04533800E-05
 1 26 6.34056630E-07-2.10874367E-05 1.11539208E-06 2.29854524E-07-1.21091088E-07
 1 27-1.07521782E-05-1.84901371E-05 3.40705896E-04-1.23226008E-06-1.60809192E-06
 1 28-9.15040567E-09-6.33875829E-05 2.19501538E-04 1.39661729E-07-3.01826713E-05
 1 29 4.24973684E-05-1.23146970E-05 7.42367556E-06-2.39162001E-09 2.73196858E-08
 1 30-6.63052293E-06-1.16355238E-05-1.01902640E-04 2.64233078E-06-5.51534997E-07
 1 31-9.71653290E-09-9.06381279E-05 8.30520020E-05-8.19577327E-08 1.38781814E-05
 1 32-6.77918986E-06-7.09899150E-06-2.93783191E-06 1.75916082E-08 2.25037458E-08
 1 33-7.00345666E-06-1.22067524E-05-3.97926389E-06-9.59395654E-07-1.92182220E-06
 1 34 1.88746626E-09-2.07934016E-05-3.29885187E-05-5.20238426E-08 5.66886042E-06
 1 35 1.09879410E-06-6.76765452E-06 1.29399969E-05 6.81365091E-09 6.66569951E-09
 1 36-8.04005624E-06-1.44727568E-05 1.40536396E-04 1.14900321E-06 2.00810330E-06
 1 37-1.51635117E-09-3.26445594E-05 3.73453137E-05 3.28363306E-08 6.41440796E-06
 1 38-2.63366632E-06-3.78074164E-06 2.41243971E-06-7.81300875E-09 1.51784151E-09
 1 39-3.16799787E-05 9.82841633E-06 7.10375457E-06 2.22350660E-05 6.81051942E-08
 1 40-2.13050259E-05 6.13992823E-05 1.18299526E-06-1.64142705E-05-1.05730867E-08
 1 41-3.09490225E-06-1.12894319E-06 4.24888401E-06-5.96757869E-06 3.82182950E-10
 1 42 2.89354093E-06 8.95512769E-06-1.00449253E-06 4.76143733E-06 4.12331338E-09
 1 43-9.08454065E-06 6.38392814E-06 1.78194033E-06-1.52391074E-06-1.38014149E-09
 2  1-9.10660766E-06-7.21102242E-05-1.06041149E-04-2.93697648E-04-2.56780698E-06
 2  2-4.96267778E-05 9.62488365E-08-1.67948763E-05-1.51854232E-04 3.66614626E-07
 2  3-1.57075704E-04 1.30130102E-04 3.39553461E-06 9.08822351E-06-3.61952649E-05
 2  4 2.71070414E-05-1.30810128E-05 3.40793814E-07 1.43165730E-06 9.52575958E-07
 2  5 4.35920597E-08-9.96168017E-07 2.03103751E-06-6.61366035E-08-1.93919944E-07
 2  6-6.91690498E-05-6.25498621E-06 2.84420946E-05-3.41273918E-06 2.77984287E-06
 2  7 1.46203532E-06 1.90554861E-05-2.79152720E-05-9.45581137E-06 3.57853775E-07
 2  8-2.07481114E-06 1.71695737E-06 3.62943735E-07-7.57037499E-07 6.70093589E-06
 2  9-7.38763016E-05-7.19828505E-06 3.20206470E-05-3.52559074E-06 2.94826247E-06
 2 10-1.71030281E-06 1.95347513E-05-2.78491942E-05 9.64921716E-06 5.87984124E-07
 2 11-2.01639793E-06 1.42841380E-06 3.85024674E-07 5.75659070E-07-6.67449268E-06
 2 12 1.00147962E+00 2.24324429E-03-6.97656270E-03-7.33324576E-05-1.90363882E-03
 2 13-8.10167875E-06-1.74387519E-05 1.59243386E-03 7.15668658E-06 2.81906773E-06
 2 14 2.48474813E-04-2.51293880E-04 8.35109115E-06 8.16137696E-07 2.40383082E-06
 2 15-1.65739342E-04-3.07367905E-04 1.90188714E-03-9.39791254E-05-2.69260224E-05
 2 16 8.30748025E-07 9.15887409E-04-2.98877994E-04 6.66200294E-07 2.05983067E-04
 2 17-1.54171930E-04-5.18111369E-05-1.45963970E-04-3.97235691E-07-6.92817060E-07
 2 18 2.11626575E-05 2.71494656E-05-2.63599944E-03 5.59521479E-05-5.05995993E-05
 2 19 7.53918631E-09-9.07093433E-04-5.45387874E-04 2.16966415E-06 6.08352955E-05
 2 20-6.92407167E-05 8.40542120E-06 1.29118731E-04 1.99397577E-07 8.57405722E-07
 2 21-7.81973716E-05-1.36526605E-04 2.25538975E-03 6.97164995E-05 1.79897360E-06
 2 22-2.13959929E-07-2.30676802E-03-1.98236219E-03-6.74378116E-06 3.40959919E-04
 2 23-2.39636526E-04-1.01323392E-04 1.52767447E-04 1.73975873E-06-6.77504039E-07
 2 24 3.36471602E-04 4.30505435E-04 1.17582313E-04 1.00488585E-05-1.69274990E-04
 2 25-5.44212954E-07 7.36112860E-04 4.56895572E-03 1.86554221E-05 5.40738317E-04
 2 26-9.16731022E-04 3.75992705E-04-6.24858023E-05-2.89518336E-07-6.22951344E-06
 2 27-1.54339174E-05-1.90173368E-05 9.68953053E-04-5.61827484E-05 4.14337326E-05
 2 28 9.62586439E-08 9.73996142E-06 6.31759991E-04-6.47494245E-07 3.35744670E-05
 2 29-2.63650723E-06-3.09379597E-05-4.67039503E-05-7.46865682E-08 1.58200399E-07
 2 30-7.95925357E-05-1.53365992E-04 1.55446961E-03 6.48177989E-05 4.63883952E-05
 2 31-2.06435205E-07-4.11332110E-04 6.36186284E-05 1.92064481E-06-7.67494375E-05
 2 32 4.36099698E-05 3.31394678E-05-1.01146799E-04 9.22097700E-08-1.18455375E-07
 2 33-3.22104848E-06-7.67046306E-06-3.48729290E-04 2.03166070E-05 9.11747817E-06
 2 34-1.17982799E-07 1.29658660E-04-1.19845236E-04 6.82664395E-07 4.22444971E-06
 2 35-5.56861224E-06 1.34416252E-06-2.49597520E-05-9.98697792E-08-8.09309295E-09
 2 36-1.85555505E-05-3.49425246E-05 8.69569488E-05 2.43739168E-05-4.11051680E-05
 2 37-4.24163209E-08-3.95644095E-05-5.53253358E-05-5.06441655E-07-9.95146175E-06
 2 38 1.40669326E-05-4.11547085E-06 1.59583024E-05-6.94314318E-08-1.42478073E-07
 2 39-1.56256505E-05 6.84329331E-05-1.24617499E-04 3.12736846E-05 1.09450857E-06
 2 40 2.58951305E-05 1.58064311E-04 1.43209685E-05-9.84091260E-06 7.20216498E-08
 2 41-2.56352954E-05-1.76292247E-04 4.38674980E-05-8.56577171E-06-2.33261018E-07
 2 42-1.32021555E-05-2.74010064E-05-7.07288149E-06-7.80910289E-06-6.60012781E-08
 2 43 3.73413959E-06 4.38421481E-05-5.13547722E-06 3.27268114E-06 6.13944917E-08
 3  1-8.08905572E-05-5.55652238E-04-6.16635751E-04 4.19021665E-03-5.66212117E-05
 3  2-4.38708668E-05 1.22968532E-04-1.31519765E-04-7.77911697E-05 1.95901725E-04
 3  3 6.65277717E-05 2.21947390E-06 2.90335029E-03-1.44328167E-06 5.51370522E-05
 3  4-5.36937705E-05 4.68432028E-05 8.69787175E-05 1.00680806E-04-1.46191181E-05
 3  5-1.86809236E-05 3.33000417E-05 7.49892319E-07-4.89101917E-05-5.49877514E-05
 3  6 9.55001018E-01 1.78577555E-03-6.20185323E-03 5.74102716E-04 6.68346892E-04
 3  7-1.42409774E-03-8.00416747E-04-9.57507867E-04 1.57940035E-03-2.37846722E-06
 3  8-1.58471832E-05 1.82256505E-05-1.75646598E-05 1.86206619E-05 2.48734995E-05
 3  9-3.00889376E-01-4.91561560E-04 1.55877899E-03-2.02458229E-04-2.37457496E-04
 3 10-4.52580750E-04 3.15719152E-04 3.62463537E-04-3.73880466E-06 3.98931089E-05
 3 11 4.68186379E-05-8.67117468E-05 3.77297126E-05 2.83406529E-06 3.76030633E-06
 3 12 3.88815013E-05-5.85214980E-06 3.78077818E-05 2.90841415E-07 1.96038106E-06
 3 13-1.33834656E-05-2.26229525E-05 3.00171981E-05 4.30224923E-05 1.96985438E-06
 3 14-9.29800627E-06 7.32815190E-06 2.33976252E-06 2.18727714E-07-1.21739207E-06
 3 15 8.02972318E-05 1.31868595E-04-7.92509856E-04-4.98008701E-06 6.03350156E-06
 3 16 3.12172752E-05 4.21789369E-05 6.68238766E-04-5.69547484E-04 1.06754110E-05
 3 17-5.93130032E-05 4.86375922E-05 1.48852999E-05-3.47504034E-05 1.18752011E-04
 3 18 4.06705019E-05 5.00611666E-05-5.29305060E-04 4.99752846E-05 1.61589128E-05
 3 19 1.02127285E-05 9.35776657E-04 2.08446383E-04-7.49914909E-04-1.10069574E-04
 3 20 4.76335454E-05 6.24360282E-05-1.46287873E-05 1.91398040E-04-2.32855715E-05
 3 21 2.65435862E-05 5.11498035E-05-1.79440635E-04-1.15244370E-05-4.10701887E-06
 3 22 3.20060737E-05 1.10124487E-04 2.45230987E-04 9.82244738E-05 1.26680785E-05
 3 23-2.00608473E-05 7.39276876E-06-4.41427576E-06-7.04782298E-07-2.17615321E-05
 3 24 8.79845544E-06 2.06010110E-05-9.19140262E-05-2.69438652E-06-1.06861872E-05
 3 25 5.19517847E-05 1.29093308E-04-1.16555730E-04-4.55524065E-05-3.84569537E-05
 3 26 3.43569034E-05 4.10005032E-06 1.65475297E-05-5.32316037E-05 3.44143346E-06
 3 27-3.91179643E-06-2.13140083E-06 1.97704816E-04-8.87664908E-06 1.47513080E-07
 3 28-1.52819676E-05 1.35396397E-04-6.42059334E-05 1.93004167E-04 1.22722520E-05
 3 29-3.75648278E-07-1.18966037E-05 1.06558102E-05 1.40175093E-05 1.11313356E-05
 3 30 2.44548514E-05 4.12433324E-05-3.08448981E-04-4.02779616E-06-2.82781213E-07
 3 31-1.47815995E-05 1.56368406E-04 8.11304923E-05 3.27815445E-05-7.83666608E-06
 3 32-1.13399112E-05 1.91765773E-05-8.30599716E-06-5.12885122E-06-1.40181445E-05
 3 33 3.42956052E-05 5.75044673E-05-4.44132855E-04-3.32571070E-07 6.97238107E-06
 3 34-1.04317340E-05 2.64548307E-04-1.12714566E-04-2.21063604E-05-2.36594059E-05
 3 35-5.76417026E-06 2.94235761E-05 9.94340422E-06 3.09300971E-06 1.85542641E-05
 3 36 3.00704677E-06 6.98161170E-06 1.64117584E-04-3.26083003E-06-6.23946884E-06
 3 37-1.01759398E-05-1.29187290E-04-5.00825471E-05 1.37327481E-05 3.05481511E-06
 3 38-2.50403749E-06-5.50777618E-07 3.80963971E-06-1.67828233E-06-1.61841164E-06
 3 39 4.58060169E-05-7.16418509E-05-4.81394626E-06-3.82584893E-05 4.54685584E-05
 3 40-3.10353308E-06-5.77212563E-05-1.92288455E-05-2.68027049E-06-2.45454301E-05
 3 41 1.26189870E-05-3.64499728E-05-3.87006887E-06-5.38209928E-06-3.22987152E-06
 3 42 5.71823976E-06-8.09774750E-05-1.12248013E-05 4.75175486E-06 2.97872408E-06
 3 43 4.95998402E-06 2.11568767E-05 6.75867081E-06 2.92735215E-06-1.59016175E-06
 4  1-1.55777302E-04-1.06990539E-03-1.18657909E-03 8.08353167E-03-1.08476095E-04
 4  2-8.38478020E-05-6.36106522E-05-2.51938293E-04-1.45496646E-04-1.01216470E-04
 4  3 1.43938790E-04-2.01468199E-05-1.51430716E-03-3.30541099E-06 1.06389586E-04
 4  4-1.03084175E-04 8.98638376E-05-4.61391690E-05-5.36382646E-05-2.81877197E-05
 4  5-3.48826170E-05 6.30703367E-05 1.78400867E-06 2.53934644E-05 2.92694958E-05
 4  6 3.00990926E-01 6.50158120E-04-2.43951097E-03 1.54109247E-04 1.82851944E-04
 4  7-4.42032957E-04-1.76886769E-04-2.28132276E-04 1.10692799E-03 4.70356591E-05
 4  8 4.58870772E-05-9.29227363E-05 3.37790436E-05 9.43278730E-06 1.09785450E-05
 4  9 9.55033708E-01 1.83717137E-03-6.48437457E-03 5.56525807E-04 6.65697660E-04
 4 10 1.41557141E-03-7.54435736E-04-9.34747493E-04-1.92188350E-03 2.52717085E-05
 4 11 1.24507870E-05-3.77224955E-05 4.94540781E-06-2.04763904E-05-2.69658412E-05
 4 12 8.03936469E-05-1.26624818E-05 7.38237706E-05 1.16819334E-07 4.21561896E-06
 4 13 6.95984655E-06-4.61680312E-05 6.54630482E-05-2.31577237E-05 4.51766195E-06
 4 14-1.94185730E-05 1.49009111E-05 5.14300191E-06-1.76405133E-07 7.39446181E-07
 4 15 1.56524215E-04 2.57384777E-04-1.54462063E-03-8.56214232E-06 7.15644394E-06
 4 16-1.71943459E-05 5.33662607E-05 1.31746937E-03 2.91980898E-04 1.88102389E-05
 4 17-1.15467267E-04 9.66570284E-05 2.72114323E-05 1.87570006E-05-6.00922028E-05
 4 18 8.06184976E-05 1.00532089E-04-1.06407542E-03 9.55360676E-05 3.03410748E-05
 4 19-5.26989933E-06 1.80559087E-03 3.95314194E-04 3.91014143E-04-2.12113267E-04
 4 20 9.15884334E-05 1.20524834E-04-3.09385515E-05-9.91321961E-05 1.26674462E-05
 4 21 5.24637733E-05 1.00710934E-04-4.01563424E-04-2.08261471E-05-7.86985851E-06
 4 22-1.64610272E-05 2.09677508E-04 4.23722972E-04-5.36485511E-05 2.12700887E-05
 4 23-3.56110321E-05 1.43409434E-05-8.00395730E-06 6.89321700E-07 1.17449230E-05
 4 24 1.06308994E-05 2.87781263E-05-1.06512435E-04-4.59010697E-06-1.80538192E-05
 4 25-2.70669150E-05 2.74915090E-04-2.61650030E-04 2.70396467E-05-7.66787494E-05
 4 26 7.22543185E-05 4.42443095E-06 3.47329044E-05 2.72548031E-05-4.86373711E-07
 4 27-7.64495917E-06-4.42802801E-06 3.84377016E-04-1.69530930E-05-1.74633029E-07
 4 28 8.24490272E-06 2.59008427E-04-1.22424388E-04-1.01656525E-04 2.32053306E-05
 4 29-7.58640834E-07-2.24466897E-05 2.09640098E-05-7.38313421E-06-5.81904432E-06
 4 30 4.65420081E-05 7.86346025E-05-5.71625323E-04-8.86008447E-06-1.16747965E-06
 4 31 7.62195507E-06 2.73445665E-04 1.65678602E-04-1.61833654E-05-1.36897783E-05
 4 32-2.24525039E-05 3.61422822E-05-1.58831343E-05 2.68780875E-06 7.18389919E-06
 4 33 6.60789220E-05 1.10836044E-04-8.46911795E-04-7.55982941E-07 1.38739452E-05
 4 34 5.31861205E-06 5.12391753E-04-2.15587922E-04 1.24741233E-05-4.56501964E-05
 4 35-1.09910936E-05 5.66412900E-05 1.96344570E-05-1.75304862E-06-9.66263559E-06
 4 36 6.03672032E-06 1.38119818E-05 3.22730542E-04-6.61982207E-06-1.23714254E-05
 4 37 5.29243608E-06-2.45431776E-04-8.35353229E-05-7.68842617E-06 5.55428731E-06
 4 38-4.94917497E-06-6.05112342E-07 7.37480218E-06 9.07961086E-07 8.15206296E-07
 4 39 7.39943359E-05-1.43527902E-04-1.26256537E-05-7.79685152E-05-2.36533311E-05
 4 40-6.52390591E-06-1.12098487E-04-3.61303039E-05-5.60292238E-06 1.29226708E-05
 4 41 2.27254558E-05-7.11367157E-05-6.70991778E-06-1.08053184E-05 1.62077620E-06
 4 42 1.04733402E-05-1.56438272E-04-2.17571754E-05 9.22056746E-06-1.64296792E-06
 4 43 8.50477526E-06 3.89534384E-05 1.27659319E-05 5.31241532E-06 8.70887132E-07
 5  1-1.30076920E-04-8.76675278E-04-9.27850703E-04 5.86198089E-03-2.61830483E-05
 5  2 1.05311186E-04-5.93569212E-07-6.23182065E-05 2.91526084E-04-1.45988434E-06
 5  3 1.30955600E-03 1.59727049E-03 8.84180190E-07-1.22616017E-04 4.85085715E-05
 5  4 7.41074453E-05 9.14506547E-05-1.40464701E-06 2.17494113E-06-1.49466977E-05
 5  5 5.26076496E-05-3.76609518E-05-1.85772560E-05 2.31009189E-07-5.89653932E-07
 5  6 7.38535980E-05 1.17625129E-04-7.48399415E-04 5.24269422E-06-1.87072589E-05
 5  7 3.70750573E-05-2.35362362E-04-3.65356903E-04 2.08909480E-04 1.46142947E-06
 5  8-8.34631325E-06 6.88488377E-06-3.11056946E-05 1.60510788E-05 3.50641512E-05
 5  9 7.36444837E-05 1.17381319E-04-7.43382972E-04 4.89355844E-06-1.80362050E-05
 5 10-3.65391461E-05-2.33195073E-04-3.68800123E-04-2.07001787E-04 1.87045735E-06
 5 11-8.98335411E-06 7.11289676E-06-3.10367733E-05-1.61334107E-05-3.50085255E-05
 5 12-9.95813064E-05-2.04711355E-04 6.99782964E-04-2.01275420E-05 2.43383337E-05
 5 13 2.00482147E-07 5.81580330E-04 1.38534999E-04 1.25192524E-07 3.08353919E-05
 5 14-3.18601935E-05 1.02480161E-06-8.93053801E-05-2.74727014E-07-3.07439067E-07
 5 15 1.00207473E+00 3.83654949E-03-1.01292117E-02 9.42788993E-05-6.09961584E-05
 5 16 3.64411523E-05-2.44859782E-03 7.90390102E-04-3.39430346E-05 2.41960868E-04
 5 17-2.43981823E-04 2.02095548E-06-1.98031978E-04-7.05870907E-06 3.94934068E-06
 5 18 3.63828593E-05 6.39982901E-05 7.53767830E-05 4.77754161E-06-5.20236951E-06
 5 19 8.37993838E-07 2.64100548E-03 1.34813049E-03-4.74175183E-06-5.65644100E-05
 5 20 1.12705523E-04-5.61411125E-05-4.55552830E-05 1.05038017E-06-7.41043480E-07
 5 21 2.26955998E-05 3.12721967E-05-2.48154087E-03 8.16208736E-05-7.87947340E-05
 5 22 5.80763177E-07 5.15691804E-04 1.73233494E-03-3.27509693E-07 5.73221751E-05
 5 23-1.04503617E-05-4.68718134E-05 8.86766139E-05 1.16494934E-06 6.91949222E-07
 5 24 6.33357544E-05 3.57946134E-05 3.34225042E-03-1.33185347E-04-9.83649407E-05
 5 25 1.94603093E-07-2.45981715E-03-2.57637127E-03-8.30881100E-06-1.15663487E-04
 5 26 1.15744228E-04-8.07408041E-08-1.79785069E-04-2.46136026E-06-7.97649599E-07
 5 27-2.12967963E-05-4.51535653E-05-7.92478768E-04 7.72807650E-05-2.56530851E-05
 5 28-4.31982521E-07-1.19041772E-03-5.63752102E-04 2.32832204E-06 3.94161549E-05
 5 29-5.02037451E-05 1.07875902E-05-1.43653059E-06 4.21442785E-08-5.64697043E-08
 5 30-8.85237969E-06-2.37745229E-05-7.22292265E-04 6.07535604E-05-2.80322962E-05
 5 31-5.62629958E-07-5.51336361E-04 3.23393189E-04 1.39377450E-06-2.25352155E-05
 5 32 1.23193755E-05 1.02158400E-05 6.65401934E-05 3.00088772E-07 8.20802193E-08
 5 33-5.41584015E-06-1.17499122E-05 9.00210171E-04-3.37561932E-05-1.54578502E-06
 5 34-8.26123968E-09-2.56919742E-04-3.93493170E-04-6.38195066E-07-1.23136719E-05
 5 35-8.63504813E-07 1.31771767E-05 1.71770736E-05 1.53340641E-07 1.35103498E-07
 5 36-2.74224415E-05-4.45959580E-05 9.15592273E-04-2.93121326E-05 2.56470936E-05
 5 37-1.74522325E-08-1.96592858E-04 3.12626943E-04-5.16702531E-07-7.71920567E-06
 5 38 3.15412709E-05-2.38220653E-05-2.48396914E-05 8.94655514E-08-2.04335784E-07
 5 39-3.87741815E-04 4.93264791E-08-5.37160910E-04 2.48412626E-04 1.47720385E-05
 5 40-7.35785880E-05-1.97962015E-04 4.93335270E-05 2.69231167E-05-2.97175875E-07
 5 41-6.81798966E-05 8.62811491E-05 3.57518392E-05-1.08342390E-05-2.30849872E-07
 5 42-5.80396483E-05-6.46172215E-05 9.38174612E-06 2.56479017E-05 6.58552324E-08
 5 43-3.63673517E-05 1.88140648E-05 9.82728632E-07-2.19780522E-05 5.76556931E-08
 6  1-7.16283387E-05-5.10181757E-04-5.91846653E-04 1.72121252E-03-2.92041695E-05
 6  2-3.50249233E-05-1.04640490E-07-5.59877224E-05-8.55847130E-05-2.28360145E-07
 6  3 1.41530712E-03 9.59593618E-05 2.29301348E-05-1.39490479E-05 7.57842400E-05
 6  4-6.18351921E-05 1.68095164E-04-2.49760430E-06 2.74559293E-07 1.17883577E-07
 6  5-1.15379514E-05 1.14200678E-05-2.00250231E-05 2.53768788E-07-3.07014245E-08
 6  6 1.41357816E-05 2.70633630E-05-9.53173552E-05 2.97073923E-05 2.26381377E-05
 6  7 4.30827346E-06-2.24995119E-04-8.96445413E-05 1.00598149E-05 6.84935231E-06
 6  8-8.32055370E-06 1.47120139E-06-1.03210820E-05 1.49403562E-05-1.00906810E-05
 6  9 1.09127146E-05 2.11724329E-05-6.90673734E-05 2.91903345E-05 2.36184961E-05
 6 10-3.93773092E-06-2.19859600E-04-8.73064027E-05-7.29144141E-06 7.19968643E-06
 6 11-8.02663197E-06 8.26945541E-07-1.03068918E-05-1.49808668E-05 1.04948467E-05
 6 12-1.84617989E-04 5.71846757E-04-1.96523664E-03-8.35164966E-05-4.54860117E-04
 6 13-2.34163981E-06 6.47843487E-04 1.08349662E-03 7.39451802E-06-2.32204980E-04
 6 14 2.97820371E-04-6.56153914E-05-1.87762419E-05-5.30217603E-07 1.55753961E-06
 6 15 1.74756473E-04 6.84477556E-04-2.90312254E-03 1.63185778E-04 9.59038255E-05
 6 16-8.27030821E-08-1.78170107E-03-1.44399802E-03-1.86422646E-05-4.31152227E-04
 6 17-1.99054904E-05 4.51057717E-04-2.00244409E-04-2.15808006E-06-3.81815240E-06
 6 18-1.35466786E-04-1.83371279E-04 1.15416621E-03 4.43406481E-05-2.86908997E-05
 6 19 8.93832109E-07 1.07527287E-03 2.88721863E-03-9.98088820E-06-9.01998167E-05
 6 20 2.01648882E-04-1.11449065E-04 6.10177153E-06 1.32813658E-06-3.93178475E-07
 6 21 3.09985930E-03 3.20505601E-05-1.05292783E-03 7.76050524E-06 3.05901678E-05
 6 22 4.41209567E-07-1.23018804E-03 3.17102305E-03 2.14321142E-06-3.83959054E-04
 6 23 2.83283387E-05 3.55630715E-04 4.00734008E-05-9.23298955E-07-2.44763121E-07
 6 24 1.00183548E+00 3.71180758E-03-3.57931859E-03-6.99341513E-04-1.93867758E-04
 6 25-3.11604744E-06-3.29777094E-03 1.75661199E-03-2.17125211E-06-5.60531864E-05
 6 26 9.86740582E-04-9.30687395E-04 2.91171159E-04 3.42487550E-06 1.02733126E-05
 6 27-6.46523611E-05-1.24215720E-04 8.51084461E-04 2.02376831E-05-1.27461913E-05
 6 28-4.72518715E-08-1.22828790E-03 9.85230210E-05 2.86481330E-06-1.23662628E-05
 6 29 4.21513551E-05-2.97850923E-05 1.25516341E-05-1.24844762E-07 3.54881501E-07
 6 30-4.06245855E-05-2.28369641E-05 5.85779092E-04-6.47277595E-05-4.13615847E-05
 6 31 7.18073316E-09-7.24507790E-04-5.58945802E-04-4.71628934E-08 8.56771343E-05
 6 32 4.63102111E-05-1.31987345E-04 1.51095548E-04-3.23642354E-07-1.95765868E-07
 6 33-2.49229642E-05-3.92881159E-05 7.38733735E-04-4.68643360E-06 9.50301505E-06
 6 34-9.07879260E-08-2.25490561E-04-2.58063479E-04-5.36920885E-07-3.99071110E-06
 6 35 1.36931953E-05-9.70248417E-06 3.19131740E-05 4.97244215E-08 1.73003642E-07
 6 36-2.71473395E-05-5.85554332E-05 2.77830811E-04-6.38937383E-06 6.95007455E-06
 6 37-1.13650782E-07-2.11977240E-05 2.29084930E-04 3.37175242E-07 1.52423071E-05
 6 38 1.91119402E-06-1.71535011E-05-1.92594295E-05 6.43513219E-09 3.78801881E-08
 6 39 1.73995563E-04-2.06042527E-04 2.73206520E-04 7.61753190E-05 1.35302816E-07
 6 40-1.02582252E-04-9.26594490E-05 2.46859819E-05-1.11875922E-05-2.42069977E-07
 6 41-8.54659414E-05 2.87421083E-04 4.97122239E-05 4.23395132E-05 4.35798621E-08
 6 42-3.51108493E-05 2.96353776E-06-1.58784843E-06 1.89436494E-05 3.99564647E-08
 6 43-2.97701379E-05 2.31931704E-05-2.06449873E-06-9.53310099E-06-5.16386479E-08
 7  1-8.30155085E-05-5.19750296E-04-5.90554130E-04 4.14935970E-03 8.09259667E-05
 7  2 2.22131867E-05-1.03554239E-07 1.58938344E-04 5.50826961E-05-2.61190325E-07
 7  3 9.25917509E-04 1.21682452E-03-7.65248595E-06-2.87467463E-04 9.85493562E-05
 7  4 1.88918107E-04-4.07076181E-05-3.34318121E-07-3.28299903E-07 7.89442454E-05
 7  5-2.64704705E-05-5.24737749E-05 1.30399827E-05 5.32553168E-08-1.34252824E-08
 7  6-9.00131803E-06-4.08632709E-05-3.48110325E-04-9.31992472E-05-1.37133160E-05
 7  7 4.26566735E-05-1.18018216E-05-2.09830113E-04 1.10645725E-04 2.35533517E-05
 7  8-3.04787464E-05 6.92539467E-06-1.11126659E-05 3.42493610E-05 1.88926826E-05
 7  9-8.23799951E-06-3.93897668E-05-3.52264184E-04-9.27283561E-05-1.43477755E-05
 7 10-4.24198193E-05-1.29114957E-05-2.11023520E-04-1.09255071E-04 2.36178068E-05
 7 11-3.09763304E-05 7.35852359E-06-1.13175627E-05-3.40448406E-05-1.85616409E-05
 7 12-1.98733005E-05-3.88928504E-05-1.54388942E-04 1.09034483E-05 3.36760117E-05
 7 13 2.17976212E-07-1.71389005E-04 6.29920950E-05-2.15423256E-07 1.76557165E-05
 7 14-1.74031082E-05-2.52608354E-07 8.60681244E-06 6.02508638E-08-1.82461410E-07
 7 15 9.92544216E-05 1.66438146E-04-7.78625850E-04-1.50102408E-05-8.86702167E-05
 7 16 4.99748428E-08-6.45469981E-05 1.36578273E-03-2.25351732E-06 4.00869593E-05
 7 17-4.36432755E-05 3.55631621E-06-5.77313319E-05-5.13728033E-07 1.44669454E-06
 7 18 9.99025843E-01 4.88766033E-03-1.43437257E-02-3.40808702E-04 4.66354760E-05
 7 19-1.90411985E-07-4.37608124E-05-2.57524039E-03 4.39030002E-06-1.11087641E-04
 7 20 3.86760821E-04-2.75673180E-04-3.11026147E-04-1.08667805E-08-2.95573384E-07
 7 21 5.54401762E-02-1.48450614E-04 2.66946124E-03 4.24822327E-05 9.62700099E-05
 7 22 4.62248449E-07-1.54934048E-03-4.96513825E-03-3.32031976E-06-2.49276974E-04
 7 23 1.11770621E-05 2.38099912E-04-1.68547788E-04 3.06810895E-07 1.41296165E-07
 7 24-2.88216381E-04-2.33424134E-04 1.23956068E-03-2.50673045E-05 1.51019335E-05
 7 25 7.85264857E-08 1.63051604E-03-5.89816139E-05 4.32108569E-06-5.68822495E-05
 7 26 1.57978628E-04-1.01096378E-04 4.45873062E-05-5.62841870E-07 6.75511863E-07
 7 27 5.87615970E-02-1.90804654E-04 1.57603297E-03 8.50846457E-05-9.19136975E-05
 7 28-1.90965295E-07-6.23604093E-04 1.47403820E-03-9.99415705E-07-2.05561015E-04
 7 29-1.63573238E-05 2.21918338E-04 8.85492992E-05 3.26893615E-07-2.22107964E-07
 7 30 1.78094919E-03-5.25707407E-05 1.11508238E-03-8.29890036E-05-2.76907939E-05
 7 31-1.08310176E-07-1.69515279E-03 1.09936493E-03 1.28175166E-06 1.58669633E-04
 7 32-7.21972918E-05-8.64723411E-05-1.49328567E-05-1.51385184E-07-1.68263333E-07
 7 33 2.06907427E-03 3.46286396E-06-1.27705586E-04-3.28611732E-05 1.66454823E-05
 7 34-7.56851272E-08 8.58354378E-05-5.25615669E-04 5.55936446E-07 6.76948013E-05
 7 35-2.16047728E-05-4.60900286E-05 6.04069645E-05 1.08118349E-08 7.75150087E-08
 7 36-5.28250951E-04-1.15481098E-04 1.56255526E-03 1.29693735E-05-2.02003696E-05
 7 37-2.95491490E-08-3.02555766E-04 4.59634192E-04-6.02553622E-07 5.63138685E-05
 7 38-3.62940839E-05-2.00197847E-05 3.39793462E-05 9.08143576E-09-4.62709544E-08
 7 39-1.06407484E-04-2.78483623E-05-5.37611249E-05-8.21370405E-05 2.13679261E-06
 7 40 1.02755906E-05 5.04437906E-04 1.94118061E-05 4.65355123E-05 6.48415422E-08
 7 41-8.47514526E-05-1.69315238E-04 1.80974472E-05-4.99138254E-05-1.13903690E-07
 7 42-2.82316897E-05-6.77744528E-05-2.43907005E-05 1.89412915E-05-3.65150624E-08
 7 43-9.98544102E-05 5.92573402E-05 1.52388846E-05-5.22694694E-06 4.29344841E-08
 8  1-2.19421717E-05-1.59122881E-04-1.83049472E-04 9.45801479E-04 6.23228813E-07
 8  2 6.97409306E-06 1.30106395E-08 1.36077415E-05 2.81946634E-05 1.18935249E-08
 8  3 3.43856943E-04 4.13256258E-04-1.24348180E-06 8.04397971E-05-2.63206194E-05
 8  4-5.41191778E-05 6.60340724E-05 4.90154306E-08 1.96773370E-07-1.41291708E-05
 8  5 4.35805474E-06 9.77111610E-06-6.90966777E-06-5.57014696E-09-2.16825025E-08
 8  6 1.03833778E-05 2.00955076E-05-4.91804074E-05 1.29858976E-05 7.69809451E-06
 8  7-3.23231149E-06-6.36663295E-05-4.49417088E-05 8.00252463E-06-4.92645235E-06
 8  8 1.64988572E-06 3.27656663E-06 7.00106790E-06-3.55511442E-06 3.92130404E-07
 8  9 1.04078507E-05 2.00964226E-05-4.96231416E-05 1.28666170E-05 7.65028651E-06
 8 10 3.08043706E-06-6.40677184E-05-4.47852657E-05-7.72086484E-06-5.01252133E-06
 8 11 1.75118306E-06 3.26133827E-06 7.01349821E-06 3.44588537E-06-3.49289833E-07
 8 12 1.05133796E-05 1.95867284E-05-1.62567119E-04 2.82105153E-06 1.10342894E-05
 8 13 8.28806507E-08-4.34750018E-05-1.98193122E-05-5.99241833E-08 1.81206516E-06
 8 14 2.85444079E-06-4.66650596E-06-7.25479125E-07 7.89973159E-10-2.76437771E-08
 8 15-3.22886172E-05-5.53283668E-05 3.32237281E-04-9.96858445E-06-9.54465392E-06
 8 16-5.96442890E-08 2.62771571E-04 2.40378167E-04 8.05431113E-07 1.18829858E-06
 8 17 4.95906916E-06-6.14736774E-06 1.72334046E-05 2.91575664E-07 1.89313084E-07
 8 18-5.63879349E-02-4.66729125E-04 2.13858459E-03-1.63406896E-04 7.18999719E-05
 8 19-8.90806140E-08 1.99427703E-03-2.83192931E-03 1.42318531E-06-1.76333881E-04
 8 20-2.16280355E-04 3.92614236E-04 1.20495090E-04 6.32270853E-08 1.36278789E-07
 8 21-5.09655329E-02-3.75439993E-04 1.56461568E-03-8.37808533E-06-1.01566056E-05
 8 22 1.32685500E-07-1.38640813E-03-1.40253473E-03-9.45524381E-07-1.07144454E-05
 8 23 1.33077592E-04-1.22363147E-04 2.01244215E-05-9.68949913E-08-9.52884163E-08
 8 24 1.31996271E-04-4.31323838E-05-4.78069181E-04-1.49492206E-06 1.92219838E-05
 8 25 1.65566809E-07 4.57591891E-04 4.90119594E-04 2.36385386E-06-1.44893783E-05
 8 26 1.85529278E-05-4.06354947E-06-1.98500502E-05-3.89557440E-07-1.83945372E-07
 8 27 9.91956847E-01 4.57463752E-03-1.11306182E-02-1.99789463E-04 1.77682767E-04
 8 28 6.30712629E-07 4.08716702E-04-2.37994542E-03-1.25165458E-06 1.19163183E-04
 8 29 4.34248236E-04-5.53411419E-04 5.28856371E-05 7.43019392E-08-7.23702761E-08
 8 30-7.25159381E-03-1.51316957E-04 1.52906049E-03 2.66694042E-05 1.59175031E-05
 8 31 6.13199549E-08-3.16138564E-04-1.61370008E-04 2.73369694E-07 3.12079565E-05
 8 32 1.85802743E-05-4.97882308E-05-3.60573959E-05-6.73180697E-08-5.80701307E-08
 8 33 1.20514476E-01 1.91999148E-04 1.74010220E-03 2.74079320E-05 4.56656057E-06
 8 34-2.49411176E-08-1.51884363E-03 5.53791032E-04 3.32399010E-07-1.80204646E-04
 8 35-7.34523500E-05 2.53656996E-04 5.77421930E-05-4.20535943E-08-1.83979590E-08
 8 36 8.04374381E-03-1.73922692E-05-5.98752645E-04 1.44346307E-05 1.48731416E-05
 8 37 2.14929956E-08 4.38229089E-04-1.79289516E-04-1.95179147E-07 4.51705354E-05
 8 38-1.39572583E-05-3.12132771E-05 8.93899930E-05-4.93916966E-09 2.67137331E-08
 8 39 1.27607195E-05 5.91160102E-05-3.86005484E-06-1.95180878E-05-3.55872601E-07
 8 40-4.26460430E-04 7.40417986E-04-1.63759056E-04-4.57124044E-04 1.10397336E-07
 8 41-3.64606999E-05 1.28824750E-05-1.56890830E-06 4.11192967E-06-1.14595515E-08
 8 42 1.60036127E-04 5.73100832E-04-5.59353483E-05 5.51327536E-05-7.35370553E-08
 8 43-5.23246361E-05-7.70102798E-06 4.83949314E-06-1.70929933E-05 2.19624466E-08
 9  1-5.71475705E-05-4.05451164E-04-4.56098637E-04 1.81421692E-03-3.15307256E-05
 9  2 7.32886707E-06-8.67117452E-08-7.14979453E-05 4.96348973E-05-3.50632150E-07
 9  3 7.57634157E-04 1.47143339E-04-2.06748722E-06 2.92722641E-05 8.18330154E-05
 9  4-1.11105280E-04 2.89682554E-05-1.54288354E-07-3.87213303E-07-1.07206399E-05