 $SYSTEM MWORDS=2500 MEMDDI=317 $END
 $CONTRL MAXIT=200 SCFTYP=RHF RUNTYP=ENERGY ISPHER=1 UNITS=ANGS
  EXETYP=RUN COORD=UNIQUE ICHARG=0                   $END
 $BASIS gbasis=CCD                                   $END
 $SCF DIRSCF=.TRUE.                                  $END
 $SCF DIIS=.TRUE.                                    $END
 $SCF SOSCF=.FALSE.                                  $END
 $STATPT NSTEP=1000                                  $END
 $GUESS GUESS=MOREAD                                 $END
 $ELMOM IEMOM=0                                      $END
 $DATA
 epinephrine HF/CCD local minima geometry
C1
O     8.0     1.71868253    -1.71349144    -1.54912210
O     8.0    -2.81695437    -0.02265719    -1.96016300
O     8.0    -3.67579389     0.65043628     0.48770800
N     7.0     2.90907168     0.63885313     1.00714254
C     6.0     1.67241871    -1.04502499    -0.31491774
C     6.0     0.24157239    -0.59893459    -0.06995963
C     6.0     2.67258239     0.11868242    -0.32044011
C     6.0    -0.66323626    -0.51581186    -1.12667584
C     6.0    -0.18399622    -0.25735250     1.20578277
C     6.0    -1.96216023    -0.09350955    -0.91636467
C     6.0    -1.49020791     0.16569477     1.42052007
C     6.0    -2.37799239     0.24924003     0.36692777
C     6.0     3.65425110     1.87994587     1.02951491
H     1.0     1.95442557    -1.73631155     0.48874125
H     1.0     2.27705073     0.91730100    -0.95049375
H     1.0     3.60123158    -0.23094183    -0.80344713
H     1.0    -0.36842796    -0.78968894    -2.12687182
H     1.0     0.50131851    -0.30335924     2.03802276
H     1.0     3.39645696    -0.05041872     1.55323231
H     1.0    -1.81658065     0.43098286     2.41936898
H     1.0     2.59186578    -2.04368114    -1.69205916
H     1.0     3.06399894     2.67043829     0.56259316
H     1.0     4.62061453     1.82830787     0.50656980
H     1.0     3.84284663     2.17426181     2.06283855
H     1.0    -3.66124892     0.26958966    -1.64631176
H     1.0    -3.88028908     0.85144973     1.38796353
 $END
--- CLOSED SHELL ORBITALS --- GENERATED AT Wed Jun 24 03:15:21 2015
 epinephrine HF/CCD local minima geometry
E(RHF)=     -627.4445436876, E(NUC)=  805.0488981701,   13 ITERS
 $VEC
 1  1 1.73462422E-05 2.22085513E-05-8.63081329E-05-6.53540165E-06 7.15611754E-07
 1  2-4.00938157E-06 4.13692882E-05-2.27258928E-05-2.11486591E-05 1.27865632E-06
 1  3 1.25107922E-07-1.40376424E-06 2.88219685E-07-1.27219866E-06-4.24376430E-07
 1  4-2.42468111E-04-1.05728019E-04 4.13609816E-04-2.22379021E-05 2.46005148E-06
 1  5-2.42880257E-05-9.06550794E-05 1.28938156E-05-7.53677105E-05-7.91664313E-07
 1  6 3.18316415E-05-3.10399772E-05 5.61511749E-06-3.54492720E-05-2.42897565E-06
 1  7 1.00146021E+00 2.26818469E-03-6.92328368E-03 1.02764757E-03-1.21000276E-04
 1  8 1.16548206E-03-1.98732612E-03 5.26805196E-04-3.55681815E-04-1.61285304E-04
 1  9 1.84948144E-05 1.42790490E-04 5.68051334E-05-4.88920614E-05 3.51959215E-05
 1 10 7.20083982E-06 1.29727746E-05-5.48061054E-05-3.85911068E-06-5.61106123E-06
 1 11-3.14608966E-07 2.36416550E-05 6.94597490E-05 1.24949330E-05 8.82376678E-07
 1 12-6.79294253E-07-2.03082425E-07 3.65208621E-06-3.17173038E-06 1.51203021E-06
 1 13-3.14800767E-05-5.48807836E-05 7.36759241E-04-8.18062209E-06 1.00639581E-06
 1 14 1.55197941E-06-3.40781927E-04 5.20447734E-05 7.25128548E-05 1.57904670E-06
 1 15-5.50832536E-06 3.92927866E-06-1.84508453E-06-1.05015684E-05 6.19925554E-06
 1 16-3.60389558E-05-6.56679382E-05 3.79834872E-04 4.01934731E-05-1.26583466E-05
 1 17-8.09653844E-06-1.23724927E-03 3.19543181E-04-2.94857390E-04 3.57260822E-05
 1 18-1.26580977E-05-2.30679845E-05-1.58599622E-05 2.03602084E-06-3.10891489E-06
 1 19-1.40356194E-05-2.47675921E-05 1.08181173E-04 5.53739223E-06 6.77107157E-06
 1 20 8.33644931E-07-8.47102493E-06-2.45355326E-05 5.32535466E-05 5.25634115E-06
 1 21-6.88672230E-06 1.63038116E-06-6.62183536E-06-5.72486416E-06 1.44352788E-07
 1 22 5.06613125E-06-4.25367245E-07-2.51347290E-03 3.79202632E-05-1.63634114E-05
 1 23-3.53187092E-05 3.97012661E-04-2.28771875E-04-6.05126900E-04 5.93490272E-05
 1 24-5.38426810E-06-5.39647591E-05-1.26108841E-05 4.94148263E-05-2.61788598E-05
 1 25 1.06630638E-05 1.46014299E-05-2.11096508E-03 1.19816223E-05 1.64128967E-07
 1 26 3.02206993E-05 1.10081127E-03-3.44516660E-04-1.07887522E-04 1.39696670E-05
 1 27 2.75203867E-07-1.42448709E-05-2.97451714E-05-1.20325351E-04 3.36894800E-05
 1 28-1.66285321E-04-3.06484122E-04 3.30450325E-03 2.93438120E-05-1.37087092E-05
 1 29-2.74538013E-05 1.79557301E-03-3.25830724E-04 1.15789930E-03 4.31880712E-06
 1 30-8.38574456E-05 7.95386385E-05 1.50571379E-05 2.42408612E-04-4.03313161E-05
 1 31-8.36693923E-05-1.52794733E-04 2.72402272E-03 6.74617224E-06 8.33824030E-06
 1 32 6.10032911E-05 1.85188550E-03-7.92126758E-04-1.46245468E-03-2.36869652E-04
 1 33-7.27148719E-05 3.09584524E-04 2.37562263E-05-1.64049026E-04 1.25135112E-04
 1 34 2.82689272E-04 5.14198882E-04 1.63125038E-04-2.06030480E-04 6.31655824E-05
 1 35 1.40373476E-05-4.83121713E-03 1.62867395E-03 1.25589362E-03-2.11530861E-04
 1 36-5.73838437E-05 2.68914705E-04 6.38747959E-05 4.20848295E-05 5.00938671E-05
 1 37 3.93490000E-07 1.52984960E-07-4.15037335E-05 2.32198685E-06 4.33151610E-06
 1 38-2.81574833E-07 1.80197979E-05 1.52635324E-05 8.30509008E-07-4.75936045E-07
 1 39-1.15054855E-06 1.62648460E-06-3.30519213E-06 2.21923995E-07-9.05410077E-07
 1 40-1.70618716E-05-2.62737382E-05 1.66455420E-06-2.96269429E-06-1.76702168E-06
 1 41 1.62117401E-06-4.70344213E-06 2.88692605E-06 3.55726021E-06-2.82723876E-06
 1 42-1.13918115E-05 2.62762871E-05-2.02654917E-06-4.57936565E-06-5.58881967E-06
 1 43 7.57774485E-05-2.23812105E-05-1.49836799E-05 1.30049489E-05 4.80268920E-05
 1 44 9.87393163E-05-5.99435021E-05-4.98616901E-05 1.00905710E-05-2.78282072E-05
 1 45 2.44925336E-05 6.90844658E-07-6.80641956E-06-2.84989130E-07-3.17718628E-06
 1 46-6.16475645E-05 5.41237425E-04-8.99561842E-05 5.00615847E-05 1.40098269E-04
 1 47 2.67935971E-07 8.30991922E-06 2.46229528E-06 4.38345344E-06 6.72141398E-06
 1 48 2.08667641E-06 5.39361641E-06-4.12811598E-07 4.91995817E-08-2.93895435E-07
 1 49 2.71634331E-06-7.79891252E-06 5.91183928E-08 3.66124046E-07-3.23086143E-07
 1 50 1.36656224E-06 1.74545213E-06-6.26915545E-07 3.39725668E-07-1.95352880E-07
 1 51-2.45335905E-05-2.58902913E-05-2.46968143E-06 6.33236434E-06 3.47097725E-05
 1 52 1.14610186E-04-3.08748452E-04-5.28973361E-05 1.12386589E-04 6.10520755E-04
 2  1 4.55861635E-05 3.50362987E-05-2.37995994E-04 4.63417755E-06 3.26909534E-07
 2  2 2.13048583E-06-9.36468622E-05-1.13787854E-05-4.09865270E-05-7.31581586E-06
 2  3 1.64988321E-06 5.66593266E-06 1.70865960E-06-1.81708294E-06 1.52614383E-06
 2  4 1.00146897E+00 2.28235570E-03-6.99027283E-03-3.10480403E-04 3.49070709E-04
 2  5 1.57005102E-03-8.04572384E-04-9.19308578E-05-1.91940620E-03 7.03626686E-05
 2  6 3.03221503E-05-1.00684819E-04-4.15623541E-05-1.45218495E-04 1.90563525E-05
 2  7 1.31518503E-04-1.17492745E-04 5.61107482E-04-4.10557559E-05 1.35397359E-05
 2  8 9.46294862E-06 2.84281554E-05-1.05937993E-05-1.51371802E-05-3.69072113E-05
 2  9 2.92668904E-05 7.64032088E-06 2.33332809E-05-7.80155453E-06-3.31877817E-06
 2 10 7.92305935E-06 1.44780415E-05-6.78754617E-05-7.36270312E-07-9.60953850E-07
 2 11-4.97050530E-06 6.63476583E-06 4.19841435E-05 3.09128089E-05-1.87409276E-06
 2 12-3.96046444E-07 2.27013920E-06 1.82843107E-06-5.85386406E-07-1.56152500E-06
 2 13-5.84869415E-05-9.50356174E-05 8.49411902E-04-4.31861187E-05 5.10777413E-06
 2 14 1.16771870E-05-3.71068727E-04 1.51302559E-04-2.89244109E-04 4.90937792E-05
 2 15-1.16392815E-05-3.74544977E-05-2.12730671E-05-2.01340704E-05 6.69610234E-06
 2 16 4.15870760E-05 6.70816322E-05-2.15652028E-03 6.49566595E-05-2.28761057E-05
 2 17-2.15494182E-06 1.41619492E-04 1.34464215E-04 1.09174550E-03-1.04788794E-04
 2 18 4.53193677E-06 1.00256858E-04 3.44602482E-05-2.69570345E-06 1.94961528E-05
 2 19-1.79886561E-06-5.46824638E-06-7.63456782E-05 9.92346158E-06 1.51808633E-05
 2 20 6.24076046E-07 9.95673234E-05 3.12481950E-05 1.30298078E-04-3.40966807E-06
 2 21-5.74162987E-07 3.98383106E-06-1.18384933E-05-2.27342772E-06-1.55682569E-05
 2 22-1.52131285E-04-2.64917811E-04 4.33713940E-03 3.98414147E-05-2.07609977E-05
 2 23-3.72436438E-05-2.10489551E-04 4.39480227E-04 2.10450290E-03-1.27921168E-04
 2 24-9.88590052E-05 2.26780173E-04-3.74915378E-05-2.00466344E-04 1.33129127E-04
 2 25-9.66026904E-06-2.15723573E-05-3.71528766E-04 1.95944121E-05-1.28578803E-06
 2 26 3.04314896E-05-2.02692844E-04 5.50418545E-05-4.63128547E-05-4.03002198E-06
 2 27-1.56621061E-07 4.18664304E-06 1.00240701E-05 4.90126492E-05-1.43297748E-05
 2 28 3.02634949E-04 5.41681815E-04 2.18152282E-04-1.20227023E-04 6.85020177E-06
 2 29-1.64142980E-04-4.55505802E-03 8.26883433E-04-2.95182842E-03 7.98653437E-06
 2 30 5.74387196E-06-1.37304063E-05-6.57478919E-05-3.15854690E-04 9.65786022E-05
 2 31-1.23410395E-05-2.34953298E-05-1.74179446E-03 4.30344681E-06 6.13189555E-06
 2 32 4.56264420E-05 4.84528645E-04-7.62811437E-05 4.13396641E-04 8.07579173E-05
 2 33-2.90127698E-05-5.17451475E-05-2.95362316E-05 5.59297924E-05-1.96477513E-05
 2 34-1.06676979E-04-2.13126848E-04 1.46222324E-03 1.27492919E-05 5.16290966E-06
 2 35 5.60829243E-05 2.13221520E-03-4.07504726E-04 1.26082729E-03 2.18868030E-04
 2 36-5.17882621E-07-2.18350148E-04-1.01767048E-04-1.13346565E-04-5.07690040E-06
 2 37 4.27420166E-06 7.90442489E-06-2.83231604E-05-3.04684102E-08-7.93407795E-07
 2 38-1.74906550E-06 1.49850084E-05 3.14683951E-05 1.20698624E-05-3.10088999E-07
 2 39-1.70791289E-07 4.80880288E-07-3.61914249E-06 2.05211118E-06-1.52802747E-06
 2 40-3.92634055E-06 7.03262226E-05 1.98306869E-05 8.23522372E-06 2.69126167E-06
 2 41 7.97134372E-06 3.71656727E-05-3.40318433E-06 4.32551800E-06-5.57683283E-06
 2 42 2.70017077E-06 1.20685854E-05-9.91786902E-06-4.68510778E-06-9.84892718E-06
 2 43-1.06849701E-04 3.77427840E-04 3.47148349E-05-3.93356571E-05-1.58915057E-04
 2 44 1.94566902E-05 4.01244293E-05 1.01842875E-05-1.05029376E-06 1.14803515E-05
 2 45 8.79832651E-06 9.47440396E-06-5.28299121E-06-1.07875615E-06-5.09423674E-06
 2 46 1.04066401E-04 1.81738067E-05 2.18400507E-06-5.01786894E-06-2.73023020E-05
 2 47 7.46998439E-05 1.90697129E-05-2.09200007E-05 1.29601678E-05 1.11123893E-05
 2 48 2.38545282E-07-7.31158571E-06-1.72602689E-06 5.78433222E-07-1.87016043E-06
 2 49 6.10955963E-06-1.28128962E-05 9.35464940E-07 1.45061179E-07-3.76600222E-07
 2 50-9.99283598E-07-8.78667382E-06-2.33196646E-07-1.02156962E-06 1.04625527E-06
 2 51 1.42982642E-04-2.86126051E-04-5.19498775E-04 1.92866717E-04 2.63844463E-04
 2 52-4.49220016E-05 1.32585551E-04 9.95506289E-06-1.48013720E-06 1.34420051E-05
 3  1 1.00140970E+00 2.14543632E-03-6.59033669E-03 1.26728056E-03 1.50161736E-04
 3  2 9.26580091E-04-4.02010148E-04-1.02006165E-03-1.93679612E-03 1.78696899E-04
 3  3 1.90497729E-05-1.97746672E-04-5.23065137E-05-5.10836953E-05-1.50894179E-04
 3  4-7.02440585E-06 3.34581578E-05-1.83313026E-04 2.80242194E-06 2.32502742E-06
 3  5 2.08669102E-06-3.96513590E-05-1.35856045E-05-3.94616057E-05-3.85330009E-06
 3  6 6.40999044E-07 3.21230104E-06 1.09245157E-06 7.45483458E-07-2.04122355E-06
 3  7 8.77489876E-06 2.55821605E-05-1.56436418E-04-5.62703554E-06-7.51464727E-07
 3  8-5.28435038E-06-9.08305340E-06 1.28498935E-05 5.92843484E-06 3.62760101E-06
 3  9-1.89166123E-06-1.73593979E-06-1.26879883E-06-2.24613726E-07 8.11029057E-07
 3 10-6.07444348E-05-1.08597698E-04 3.32092267E-04 3.71743365E-05 5.75849151E-05
 3 11 2.21918399E-05-2.58493760E-04-5.37973215E-04-3.24584745E-04-3.46797870E-05
 3 12 4.01611202E-07 3.42781758E-05-1.26759533E-05 9.36529121E-06 1.73295777E-05
 3 13-2.18223978E-04-3.48595861E-04 5.86421685E-03-1.88144545E-05-1.81614909E-04
 3 14-2.08448008E-04-3.98308331E-04-6.51402390E-04-2.79861130E-03 4.75793016E-05
 3 15-2.39559922E-06-4.51837024E-05-2.68873786E-06-1.02290618E-05 4.15344151E-05
 3 16 4.87722106E-05 6.34578395E-05-1.61268158E-03-4.33443218E-05 8.43887550E-06
 3 17-1.87684046E-05-1.38442015E-03 9.80450532E-04 2.15156220E-03-6.66716228E-05
 3 18 2.48262156E-05 4.18454072E-05 6.67180135E-05 7.13610723E-05 4.17442679E-05
 3 19 9.36202455E-06-1.95199341E-05-1.32488293E-03 8.33829406E-05 9.13894933E-05
 3 20-1.31303715E-06 3.52733581E-04 4.49166524E-04 5.23535968E-05 2.93173684E-05
 3 21-5.27793730E-05 2.34620047E-05-7.27061563E-05-1.33317345E-04-3.90364449E-05
 3 22-2.16321665E-05-4.53128575E-05 5.07081866E-04 2.35515362E-06 2.80851658E-05
 3 23 4.78785381E-06 1.12791796E-03-4.50719637E-04 1.39540633E-04-3.06702605E-06
 3 24 4.26164503E-06-1.19461899E-06-1.30694864E-06 8.04522099E-06 5.20328965E-07
 3 25 3.21174623E-05 4.85553096E-05-2.43929166E-03-5.95269401E-05 9.77711227E-06
 3 26 3.48662326E-05 1.18287096E-03-3.22872282E-04 4.35762312E-04-4.12442189E-05
 3 27 2.32649582E-05 1.79792607E-05 1.63046543E-05 1.66938978E-05 2.85125373E-05
 3 28-3.37400340E-07 1.13327282E-06 6.99728863E-04-8.87160549E-06-2.74103047E-06
 3 29 1.88680578E-05 3.60712151E-04-1.06066289E-04-4.70862175E-04 9.86150926E-06
 3 30-4.54071735E-06-5.32079191E-06-1.93786578E-06-5.54629156E-06-1.94963318E-06
 3 31-3.89378848E-05-6.18070554E-05 1.65919743E-03 3.79031063E-05-1.39435174E-05
 3 32-1.14881884E-05 7.00274419E-04-2.33855878E-04-2.66166579E-04 3.56857403E-05
 3 33-2.55170045E-05-1.01687358E-05-2.69993912E-05 1.18583339E-05-1.11223554E-06
 3 34 4.84598609E-06 7.91137711E-06 9.46152866E-05 2.03113669E-06-7.39613281E-07
 3 35-2.42314180E-05-3.18396379E-04 3.08427946E-05-1.06607437E-04 1.54996337E-06
 3 36 9.41116943E-06-1.09611328E-05-2.77858993E-06-1.65931846E-05 4.30477420E-06
 3 37 1.24383783E-05 2.69029777E-05 2.87168233E-04-1.73481466E-05-4.26780659E-05
 3 38-2.21208635E-06-1.14927922E-04-3.72158410E-05 1.26770918E-04 1.64060667E-06
 3 39 1.12363900E-05-1.28769967E-05 1.66095937E-05-1.62272845E-05-3.51342984E-05
 3 40-2.24809793E-04-4.61005772E-05 1.34123913E-05 1.13944608E-04 2.18989139E-04
 3 41 6.08921056E-05-6.40757560E-05 9.08552551E-06 5.31953070E-05 4.27862742E-05
 3 42-3.59604927E-05 1.72445605E-06 5.90532673E-05 8.44025911E-06 2.14065392E-06
 3 43-6.56778267E-05-2.49431222E-04-5.41066977E-05 2.49941040E-05-2.23920292E-05
 3 44-6.27996138E-05-1.81603173E-04-3.79233017E-05 5.87677507E-06 9.86330207E-07
 3 45-9.99538217E-05 1.32010603E-04 6.83861529E-06 1.74776188E-05 1.69300076E-05
 3 46-2.71160932E-05 7.49985813E-05-3.24168174E-05 8.64507801E-06-1.80643653E-06
 3 47 6.75367606E-05-1.41764540E-04 6.49251340E-04-1.71920760E-04-1.47313942E-05
 3 48-3.08938815E-05-1.75750419E-05-2.06507461E-06-1.47766950E-07-1.35318656E-05
 3 49 3.86403985E-06 9.94078950E-06 1.00038834E-05 7.32568245E-07-4.72480419E-06
 3 50-1.65460900E-05-7.79573400E-05 3.76585430E-06-1.06403765E-05-6.48994869E-06
 3 51 3.06906420E-05-2.16455604E-05 1.16222330E-05-2.18270011E-06-4.81387520E-07
 3 52 1.40070820E-05 2.53314024E-05 1.57354690E-05-5.34684554E-06-3.52964525E-06
 4  1-5.50891835E-06-1.11015564E-05-9.44069940E-05-2.29416499E-05-2.97251161E-05
 4  2-1.62586584E-05 2.21343070E-04 5.62210217E-05 5.15804861E-06 1.17353195E-05
 4  3-1.06287078E-05-1.10661166E-06-4.55061266E-08 2.73736500E-06-9.19151186E-07
 4  4 9.19663067E-06 1.64461325E-05-9.89362323E-05-4.07519922E-07-1.07011295E-06
 4  5 4.94940052E-07-5.94927418E-06 6.13205575E-06-2.27888264E-05-1.29001395E-06
 4  6 1.00005962E-07 1.19000799E-06 7.83606466E-07 7.34451501E-07 9.48610669E-07
 4  7 6.28465271E-06 1.15301356E-05-6.41131777E-05-7.85323413E-07 7.07723586E-07
 4  8-2.27930725E-06-7.04713456E-06-3.43468111E-06 4.95659766E-07 1.85456970E-06
 4  9-5.82256660E-07-1.27231304E-06-1.39325391E-06-3.14867044E-07-1.92628854E-07
 4 10 1.00185743E+00 3.26510622E-03-8.12871266E-03 1.48638653E-03-3.80605146E-04
 4 11-5.94438271E-04-1.17267717E-03-2.22738370E-04 1.85290109E-03 5.16467834E-05
 4 12 3.23703442E-05-8.40171276E-05-2.29688105E-04 7.75662926E-05-2.01206616E-04
 4 13-2.07012665E-05-5.74186664E-05 1.32206046E-05-8.60223819E-05-1.03918584E-04
 4 14 2.03768514E-05-1.35007832E-03-1.46789252E-04-5.02579368E-04-1.19584428E-05
 4 15-6.88830722E-05 8.08415150E-05-7.52579699E-05-2.54778453E-05 5.49359751E-07
 4 16 1.13155219E-04 2.00559188E-04-1.35856529E-03 4.33392841E-05-5.18028999E-06
 4 17-1.17828166E-05-9.24644952E-04 3.34582788E-04 6.86571286E-04-3.22726549E-05
 4 18 3.11525667E-05 1.12008821E-06-5.63514121E-06-3.19449653E-05-1.99474323E-05
 4 19-7.80821267E-05-1.87327621E-04 3.85606282E-03 9.83267734E-05 1.44693732E-04
 4 20 1.64028067E-04 3.37239362E-04-1.29625380E-04 1.65386044E-03 1.64788967E-04
 4 21 9.05482838E-05-2.55337250E-04 1.54259559E-05-1.36912428E-05-8.05362337E-05
 4 22-5.66932878E-06-7.66320262E-06 1.89673779E-04 6.99757417E-06-8.56232963E-06
 4 23 1.36752612E-05 4.81797297E-04-6.40223014E-05 1.15732624E-04 2.11040598E-05
 4 24-1.16524896E-05-9.45157017E-06-3.20239557E-06 1.94752045E-05-1.01620558E-05
 4 25 3.33198022E-05 5.51792048E-05-9.21538551E-04-1.65681700E-05 7.81711547E-07
 4 26-4.96051406E-06 6.07581270E-04-1.15265521E-04 1.76295011E-04-6.44738372E-06
 4 27 1.40127241E-05-7.56534037E-06 3.65219244E-07-1.70297041E-05-4.19727292E-06
 4 28 4.84701282E-06 8.65819413E-06 2.41241517E-04-3.37173901E-06 6.67332570E-06
 4 29 8.15750584E-06 4.40073223E-05-8.70229027E-05-2.03249786E-04-3.87544988E-06
 4 30 3.07491592E-06 8.00533958E-07 1.56624119E-06 2.86849610E-06-6.04509196E-07
 4 31-2.05242971E-05-3.38253329E-05 6.99051142E-04 1.14541584E-05-1.85697513E-06
 4 32-2.84480806E-06 3.49250370E-04-1.48355570E-04-1.00888650E-04 7.82177267E-06
 4 33-9.90139387E-06 2.07962120E-06-9.93210067E-06-1.77297233E-06 5.88591221E-06
 4 34 3.53930722E-06 6.11564484E-06 6.71274235E-05-5.45156560E-07-3.91704894E-06
 4 35-1.12339302E-05-1.00751266E-04 5.89164097E-05 7.82730802E-06-3.36051485E-06
 4 36 1.77259101E-06 1.58792383E-06 2.54358353E-06-4.48830604E-06 2.80512765E-07
 4 37 6.97074892E-05 8.38309666E-05 2.45274460E-03-1.03945608E-04-1.98750985E-04
 4 38-4.82254088E-05-1.08387206E-04-8.96875418E-04-1.17591500E-04 6.52175832E-06
 4 39-1.40546024E-04 1.34024266E-04-2.70274356E-04 2.70284237E-05 1.10013929E-04
 4 40 1.05886030E-04 1.21991885E-04 3.25834551E-05-2.69369817E-05-1.59458217E-05
 4 41-1.80768199E-04 1.17438665E-04 1.31374228E-06-1.60099480E-05-5.96406964E-05
 4 42-3.75489753E-04-1.27768567E-04-1.27356047E-05-1.11727911E-06-1.09035798E-04
 4 43-1.64272593E-05-2.06165467E-05-2.96447286E-05-1.88381943E-07 4.18883683E-07
 4 44-3.49969428E-05-1.70988020E-04-4.46455846E-05 2.24734153E-06 1.28032125E-05
 4 45-5.48710415E-05 1.81590139E-04 4.57348650E-04-5.05911079E-04 3.22524897E-04
 4 46-1.60110863E-05 4.77970228E-05-1.51208066E-05 6.92636310E-06 2.32091079E-07
 4 47-6.50478552E-05 9.16121428E-05 1.84697114E-05 5.46686391E-08 3.03037575E-05
 4 48-2.17104212E-04 2.29940999E-05-1.35006669E-05 3.67311305E-05-8.56433479E-06
 4 49-3.18508891E-04-2.97837852E-04 4.57207503E-05 5.89857319E-05-2.13326610E-05
 4 50-3.09591419E-04-1.78385855E-04 1.89780952E-05 7.82686362E-05 8.23112628E-05
 4 51 1.57303396E-05-1.53717160E-05 4.58326943E-06-2.30074748E-06-2.89912582E-06
 4 52 6.03101027E-06 9.72379676E-06 6.39718586E-06-1.49136656E-06-1.72342269E-06
 5  1 8.06025618E-06 1.26594258E-05-1.51236114E-04 6.39643794E-06-2.61604794E-06
 5  2-4.04730885E-06-8.95613170E-05-2.99025998E-06-1.86462638E-05-2.87429702E-06
 5  3 1.76189161E-07 2.69810786E-06 1.32058386E-06-5.83852264E-08-1.24357275E-06
 5  4-3.18359523E-06 1.68736145E-05 3.33910825E-06 2.20512812E-05-2.14071817E-07
 5  5 3.51430706E-05 1.18049338E-05-7.66518091E-05-4.34255157E-04-4.13751315E-05
 5  6 3.79548693E-05 3.42026219E-06 2.39987316E-05-2.57913095E-05 3.64341750E-08
 5  7 3.83834509E-04 9.60611244E-04-3.16192050E-03 2.23037024E-04-7.98241292E-05
 5  8-9.65137575E-05-1.65540246E-03 5.06651586E-04 1.39999056E-04-2.67031598E-04
 5  9 2.25429919E-04 4.16016790E-05 1.97324027E-04 6.16315570E-05-6.30178262E-05
 5 10 5.76667757E-09 1.14670519E-07-1.41997388E-05 1.59731836E-06-7.74101090E-08
 5 11-8.26646475E-07-1.67856399E-05 1.42545838E-05-1.20551884E-05-1.68551587E-06
 5 12-1.21450567E-06 2.90002154E-06 2.17733125E-06 2.89978647E-07 2.05970878E-06
 5 13-1.06264489E-04-1.04577372E-04 9.85665606E-04 3.24017562E-06-4.62167848E-06
 5 14 1.31123399E-05-3.73355637E-04 1.59685552E-04-1.73528691E-04 6.10994749E-06
 5 15-4.38704504E-06-1.72290245E-06-5.42643612E-06 1.71655064E-06 6.55736090E-06
 5 16-2.71707641E-04-1.91986799E-04 2.68334850E-03 2.00727116E-05-4.64327403E-06
 5 17 1.73232376E-05-1.82798566E-03 5.99121514E-04 4.71607419E-04 2.30964227E-06
 5 18-7.06853941E-05 6.83757518E-05-2.90921538E-05 1.96981301E-05 2.36877271E-05
 5 19-4.20800822E-06-1.16461950E-06-1.02409603E-04 5.41268146E-06 8.96086727E-06
 5 20-2.51746010E-06 6.88383327E-05-7.33965574E-06 7.76116520E-05 1.15074749E-06
 5 21 5.50215685E-07-1.70096317E-06-6.06040838E-06-1.05256522E-05-7.42131383E-06
 5 22 1.01443535E-03-6.70478966E-05-1.19615607E-03-4.54021848E-05 1.06800755E-05
 5 23-1.62880940E-05-6.33641139E-04 1.36115115E-05-1.01920464E-03 1.02332333E-04
 5 24-2.81232111E-05-7.42091216E-05-6.85290700E-05-9.38540277E-05 2.11242632E-05
 5 25 5.31828100E-05 9.35517124E-05-3.54481623E-03 4.17802957E-06-8.59474682E-07
 5 26 7.95028515E-06 1.13153026E-03-5.58492601E-05 1.59347677E-03 8.50351717E-05
 5 27-1.88809695E-05-6.61542022E-05-2.86851090E-05 4.89024887E-05-2.36454913E-05
 5 28 1.27075651E-01 1.21034885E-04 4.21799026E-03-1.62733445E-04 4.03178750E-05
 5 29-4.27738404E-05 6.64688984E-05 4.55162604E-04 2.77794397E-03-1.90623847E-04
 5 30 8.88682696E-05 1.01755578E-04 1.31902461E-04 1.31208343E-04-4.36574923E-05
 5 31 1.06430703E-02-5.29708791E-04 6.47151863E-03-5.31886404E-05 1.70497877E-05
 5 32 9.24548480E-06 3.27507149E-04-8.07422754E-04-4.16769524E-03-1.19686133E-04
 5 33 1.03945025E-04 1.57411075E-05 1.02334623E-04 8.84255109E-05-4.94778255E-05
 5 34 9.93937357E-01 4.41869945E-03-1.18246120E-02-1.01471633E-03 2.97819413E-04
 5 35 2.99682896E-05-5.44282112E-03 1.72733754E-03 6.74298206E-04 4.07330004E-04
 5 36-4.13849918E-04 6.51991386E-06-2.99513171E-04 4.44637313E-05 8.67470505E-05
 5 37 1.66287605E-06 2.45613702E-06-3.45117732E-06 9.39323839E-08-6.64627688E-07
 5 38-8.95750774E-07 4.46227020E-06 1.23679571E-05 1.08886742E-05-1.66784970E-06
 5 39 1.12585428E-06 5.41995424E-07-2.19696643E-06 3.16986712E-07-3.06290857E-06
 5 40 5.74335241E-06 8.73839627E-05-9.76170095E-07 6.27062459E-06 6.47874936E-06
 5 41 1.48668673E-05 5.33118838E-05-1.43331067E-06-1.57138605E-06-1.19916788E-06
 5 42 2.58044790E-07 3.77719610E-06-2.80131917E-06-2.39243242E-06-6.40332143E-06
 5 43-8.84578459E-06 6.16893800E-06-2.18497290E-05 1.41437676E-05 4.62726156E-05
 5 44-5.57278392E-05-3.79687899E-04-4.98903362E-05 1.44873542E-05-1.12977457E-05
 5 45 8.54214015E-06 1.26454975E-05-4.27686631E-06 3.48750022E-06 5.71297924E-07
 5 46 2.30315857E-04 1.36247911E-03-2.03017193E-05-6.56005351E-06-7.61955262E-05
 5 47 6.03730842E-05 2.21272288E-05-1.62217558E-05 9.84877825E-06 5.46401451E-06
 5 48-8.43868509E-07-7.74360824E-06-1.01709105E-06 1.50528187E-06-1.43444878E-06
 5 49 3.59719364E-06-6.32830718E-06 3.15908302E-07 3.79342110E-07-3.43331840E-07
 5 50-2.32234713E-06-3.11783109E-06-3.57212281E-07-8.66439077E-07-4.33499855E-07
 5 51 1.15455454E-04-3.40871854E-05 9.13974585E-05-1.99681448E-05 3.88889097E-05
 5 52 3.18912297E-04-4.63987310E-04 2.68774046E-04-9.86335896E-05-1.21278447E-04
 6  1 9.94718554E-06 2.41786568E-04 5.95023010E-04-3.08472873E-05 1.03838379E-04
 6  2 2.24916472E-04-5.89540636E-05 1.20549283E-04-3.60523253E-04 5.79468663E-05
 6  3 1.02337258E-04-1.60284124E-04 3.30531190E-05-1.37578747E-05-1.91593084E-04
 6  4-6.10861230E-06-1.35948291E-05-2.12801582E-05-4.62228630E-06-6.92900551E-06
 6  5-1.06550383E-05-9.27566706E-05 6.50787878E-05 4.71690633E-05-3.27618009E-06
 6  6 8.13843561E-07 2.46233653E-06 8.47190167E-07-4.83988159E-07 2.49783662E-06
 6  7 1.79215528E-06 1.34046569E-06-1.44942002E-04-1.25657800E-05 3.61118979E-06
 6  8 1.46328438E-06 2.16369028E-05-1.82447021E-05-5.78469483E-05 5.36094908E-06
 6  9-2.02229268E-06-3.33865639E-06-3.70733273E-06-1.54384012E-06 4.03981049E-07
 6 10-5.33114069E-05-1.03416136E-04 9.57209874E-05 3.60009102E-05 9.59412334E-05
 6 11 3.81308050E-05-1.21220935E-04-9.45431597E-04-1.15181376E-04-2.22107718E-05
 6 12 1.16312440E-05 1.05795278E-05-1.30736787E-05 2.33164311E-05 9.53011450E-06
 6 13 1.00272339E+00 5.39218229E-03-1.48367791E-02-4.74618540E-05-3.33856785E-04
 6 14-5.84074013E-04 1.19456000E-03-2.94113909E-03 2.31166134E-04-2.21556466E-04
 6 15 1.51247191E-05 2.06431746E-04-1.08285054E-04 9.34632869E-05-1.06511723E-04
 6 16 5.55563699E-03 1.63625099E-04 1.18896467E-03 1.87282974E-04-2.63439292E-05
 6 17-2.04965936E-05 3.72943263E-03-8.44399267E-04-9.53417901E-04 1.28657442E-05
 6 18 4.77015201E-06-1.76358962E-05 1.39900430E-04 6.78058612E-05-5.70478235E-05
 6 19 9.09036456E-03-1.77232462E-04 4.04738152E-03-1.56031367E-04-1.81693969E-04
 6 20 1.84062192E-05-2.05880943E-03-1.57599316E-03-8.47983319E-04 9.33301759E-05
 6 21-4.91321274E-05-4.41980485E-05-6.26262037E-06-4.60226416E-05 1.04135950E-06
 6 22-1.27645424E-04-1.65020353E-04-6.39881581E-04-9.09238653E-05 2.05672798E-06
 6 23-2.91770748E-05 2.02032398E-03-4.20575304E-04 8.08744315E-04-3.52842152E-05
 6 24-9.68803418E-05 1.32164557E-04-4.44028173E-06-2.77178698E-05 5.02718399E-05
 6 25-1.34477531E-04-1.64377165E-04 9.88935162E-04-3.23984084E-05 1.29052221E-05
 6 26-6.10200835E-06 6.14440464E-04-4.39673313E-04-1.24975026E-03 1.18096008E-05
 6 27-1.36081508E-04 1.24271907E-04-1.70288807E-05 7.19919961E-05 3.13801672E-05
 6 28 1.17152875E-04-2.40918301E-04 1.92225581E-03-9.42912128E-06 2.03439084E-05
 6 29-2.82244431E-06 1.67278192E-03-7.10020914E-04-7.31916763E-04 7.93400655E-05
 6 30-5.65795676E-05-2.27604979E-05-5.45947766E-05-5.92074902E-06 3.90286315E-06
 6 31-9.50312083E-05-1.82461108E-04 1.15591190E-03-1.83290020E-05 1.75727008E-05
 6 32 1.04570570E-05 6.41951605E-04-2.32567312E-04-9.69566115E-05 3.61696603E-05
 6 33-4.39916699E-05 7.82200965E-06-2.43252689E-05-5.02973139E-07 2.10547187E-05
 6 34-5.31725562E-05-1.23461761E-04 7.84482119E-04-5.39015948E-06 5.78151679E-06
 6 35 2.64088019E-06-2.72245962E-04 4.45418324E-05-4.07158594E-04 2.30568178E-07
 6 36-3.24284198E-05 3.21978516E-05-1.32679895E-05-8.34615199E-06 1.18347847E-05
 6 37-4.13519259E-05-1.32785196E-04 1.03242594E-03-3.62593795E-05-5.60676368E-05
 6 38 2.79897943E-05-3.79380332E-04-4.97217177E-04-4.15828420E-04 1.84537316E-05
 6 39 1.06203959E-05-2.90741274E-05 7.19386780E-05-1.37827564E-05 3.09328783E-05
 6 40 2.92614958E-04 8.03983227E-04 8.46719603E-05-9.61485298E-05 3.02508674E-04
 6 41-2.06286445E-04-2.46074981E-04-3.92245870E-05-6.19332160E-05 3.20713617E-05
 6 42-2.02356649E-04 9.83788881E-05 4.86156046E-05-2.04636552E-05 5.92090348E-05
 6 43-1.37952284E-04 1.11696979E-04-1.07784048E-04 2.01497926E-05-8.81883230E-05
 6 44-1.18159603E-04 1.42559364E-04-1.43738969E-05 2.83415076E-05 8.84539239E-05
 6 45-2.33907230E-04-2.10984685E-04 6.97537515E-05 1.60215966E-05 6.61730875E-05
 6 46-3.38612555E-05 1.45962569E-04-2.45973878E-05 7.69645664E-06-1.10901066E-05
 6 47 1.52162506E-04-4.05031174E-05-8.98401124E-06 6.50989075E-05 2.05757508E-04
 6 48-7.49570330E-05-1.09214013E-04 7.27880668E-06 1.02563709E-05 2.72058115E-05
 6 49-1.37287911E-04 9.93844498E-05 1.20734160E-05-8.02072705E-06 1.20327130E-05
 6 50 3.15611561E-06 2.04040612E-04 8.48444551E-06 3.56224591E-06-6.57627215E-06
 6 51 2.24060055E-05 8.61170414E-05 1.85793717E-05-2.34056924E-06 3.83848788E-05
 6 52 4.92200802E-05 4.85119297E-05 1.64110477E-05-6.86055512E-06-1.18206934E-05
 7  1 5.88750143E-06 8.43211043E-06-1.86771306E-04 1.35501622E-05-4.56927946E-06
 7  2-2.43608540E-06-1.57315665E-04 2.71704006E-05 8.10194388E-06-1.00477436E-05
 7  3-3.96811848E-07 1.04445554E-05 4.62635635E-06 5.32752282E-06 3.93928839E-06
 7  4 3.81654797E-04 9.84485010E-04-3.30969262E-03 2.03289273E-04-3.64768311E-05
 7  5 1.26851559E-04-9.22075753E-04 5.28622348E-05-1.25511481E-03-1.02517324E-04
 7  6 2.45474648E-04-1.42957325E-04 9.40615705E-05-1.81251001E-04-2.86354861E-05
 7  7-1.04774292E-04-2.32470783E-04 9.51687033E-04-2.44141284E-05 7.38530492E-06
 7  8 4.49389389E-06 2.09491809E-04-2.30680718E-05 2.17934826E-04 2.99992577E-05
 7  9-5.14050894E-05 2.14058317E-05-4.15049487E-05-5.45430797E-05 3.28425356E-05
 7 10 3.54384174E-06 6.56815388E-06-3.76355709E-05 2.84108327E-06 1.68949465E-06
 7 11-3.14109689E-06-1.39990904E-05 6.29996460E-06 1.96706534E-05-2.68855477E-06
 7 12 8.88831939E-07 1.79972283E-06-1.31416700E-07 2.66195284E-07-1.79849302E-06
 7 13-3.32930452E-04-1.41037804E-04 3.83005065E-04-3.75143377E-06-7.14948324E-06
 7 14 1.04425601E-05-1.52053664E-04 1.76871887E-04-3.56146025E-04 4.31469249E-05
 7 15-6.14550332E-06-3.70014216E-05-1.42585309E-05 2.21022159E-05-1.22770074E-05
 7 16 1.31319262E-04 1.45056390E-04-3.48191778E-03 2.64048859E-06-1.08705266E-05
 7 17-2.64922132E-05 1.47014604E-03-2.60067229E-04 1.10562162E-03 3.61972718E-05
 7 18-4.38327632E-06-3.18139954E-05-1.66255624E-05 4.05183698E-05-1.44541881E-05
 7 19-1.86639857E-06 1.11272434E-05-2.19001333E-04 1.17660095E-05 1.26034280E-05
 7 20-3.21256951E-06 1.48056785E-04 5.75695391E-05 1.28039290E-04-8.07455823E-06
 7 21 4.50026144E-06 3.57429680E-06-1.03955273E-05-2.13595957E-06-9.46293990E-06
 7 22 8.97154680E-03-4.94110987E-04 6.96785260E-03-5.38175176E-05 1.04425856E-05
 7 23-1.83302933E-05-1.16920863E-03 1.00566345E-03 3.71799776E-03 8.13621074E-06
 7 24 1.38700421E-04-1.46836631E-04 2.51443193E-05-1.28404126E-04-2.22985974E-05
 7 25-2.31901295E-04-1.25560638E-04 2.08443303E-03 2.76523964E-05-6.93020470E-06
 7 26 3.20344247E-06-1.38008668E-03 3.51986369E-04-3.19022287E-04 1.34355153E-05
 7 27-3.92946755E-05 2.58591602E-05-2.47108590E-05-1.15429715E-05 1.91080201E-05
 7 28 9.94063654E-01 4.52913464E-03-1.30295437E-02-7.35152591E-04 1.09687731E-04
 7 29-6.04592881E-04-3.38627509E-03 6.07879687E-05-5.47228360E-03 1.80702591E-04
 7 30-4.95941873E-04 3.15239282E-04-2.09125139E-04 2.51642916E-04 1.02178793E-04