 $SYSTEM MWORDS=2500 MEMDDI=353 $END
 $CONTRL MAXIT=200 SCFTYP=RHF RUNTYP=ENERGY ISPHER=1 UNITS=ANGS
  EXETYP=RUN COORD=UNIQUE ICHARG=0                   $END
 $BASIS gbasis=CCD                                   $END
 $SCF DIRSCF=.TRUE.                                  $END
 $SCF DIIS=.TRUE.                                    $END
 $SCF SOSCF=.FALSE.                                  $END
 $STATPT NSTEP=1000                                  $END
 $GUESS GUESS=MOREAD                                 $END
 $ELMOM IEMOM=0                                      $END
 $DATA
 L-DOPA HF/CCD local minima geometry
C1
O     8.0     2.50182080    -1.97834551     0.86637181
O     8.0    -2.09233499    -1.01365864    -1.75535929
O     8.0     4.01097822    -0.26724252    -0.53248793
O     8.0    -2.67113400    -1.52080023     0.31209025
N     7.0    -3.70393109     1.16399169     0.13362063
C     6.0    -1.30603242     1.08656180     0.88364810
C     6.0    -2.34473658     0.78397149    -0.21318147
C     6.0     0.12303594     0.75725228     0.50465721
C     6.0     0.68866181    -0.46806648     0.86132497
C     6.0     0.89288944     1.65724552    -0.21852425
C     6.0     1.98448884    -0.78763258     0.50397313
C     6.0    -2.38774204    -0.70510805    -0.50438625
C     6.0     2.19790697     1.34170377    -0.58187991
C     6.0     2.74370813     0.12634352    -0.22498292
H     1.0    -1.58971930     0.53937644     1.78376353
H     1.0    -1.38285697     2.15108824     1.11782932
H     1.0    -2.06796575     1.29938757    -1.13152945
H     1.0     0.12332042    -1.19654894     1.42594099
H     1.0     0.48564017     2.61905146    -0.50176239
H     1.0     2.79223657     2.05261374    -1.14363146
H     1.0    -3.74448442     2.14479375     0.35093671
H     1.0    -3.99442172     0.66507983     0.95840532
H     1.0     3.39335895    -2.03756380     0.55174887
H     1.0    -2.14476204    -1.95987105    -1.84358120
H     1.0     4.46177530     0.40247622    -1.02350450
 $END
--- CLOSED SHELL ORBITALS --- GENERATED AT Wed Jun 24 03:16:55 2015
 L-DOPA HF/CCD local minima geometry
E(RHF)=     -701.1933062550, E(NUC)=  897.1916644253,   13 ITERS
 $VEC
 1  1 5.97987410E-06 7.87900335E-06-5.65381546E-05 2.79814148E-07-2.76564288E-06
 1  2-2.46178121E-06 8.97351304E-06-9.39102546E-06 1.92206937E-05-1.17353436E-06
 1  3 1.48796376E-07 1.02473799E-06 2.10917789E-06 3.71022617E-07 4.51746126E-07
 1  4 1.00139272E+00 2.15189882E-03-6.32416588E-03-3.79468607E-04-9.94760081E-04
 1  5 1.17434343E-03 4.55499850E-04-6.91501228E-07-1.87612998E-03-2.56762107E-05
 1  6 1.51841393E-04-1.26165182E-04 1.96867238E-05 2.41370779E-05-1.44854342E-05
 1  7 4.92778226E-06 2.14764271E-06-1.49342035E-05-2.51295501E-07-1.27047161E-06
 1  8 4.76930630E-07-1.52669989E-06 1.55946769E-05-7.03446330E-06 1.37324683E-06
 1  9-1.36277108E-07-1.23696972E-06-1.65924209E-06-5.16139599E-07-6.92303248E-07
 1 10-4.40817738E-04-1.88474178E-04 3.56642826E-04-8.89482075E-06-5.22861761E-05
 1 11 5.38495255E-05-1.29850617E-04 4.41790797E-04 4.85754020E-04-1.87055036E-05
 1 12 1.22817294E-04-1.04111790E-04 2.15021595E-06 3.31723961E-05 3.29234205E-05
 1 13 2.98102743E-05 5.52075083E-05-4.49951470E-04-3.17277182E-06 6.45809225E-06
 1 14-2.22117980E-05-1.57810215E-04-1.67397413E-05-4.81382933E-05-1.05972552E-05
 1 15 5.19604548E-06 5.40120968E-06 7.47882913E-06-2.76964372E-05 7.63433052E-06
 1 16-4.28826261E-05-7.22380363E-05 3.78572713E-04 3.93949612E-05 3.73407409E-05
 1 17 5.25567833E-06 8.56442118E-04-6.01158026E-04-3.63268159E-05-4.48176905E-05
 1 18 2.04849597E-05 2.43327307E-05-4.24206415E-05-1.14824631E-05-1.07606774E-05
 1 19-1.01378100E-04-2.05916733E-04 7.47481516E-04-1.12881048E-05 1.20486959E-04
 1 20-2.25748204E-05-3.59019359E-04 1.05607630E-04 1.24203844E-03 1.07827367E-05
 1 21-4.64412927E-05 3.56585559E-05 6.05971618E-05-2.97308676E-05-1.85850815E-04
 1 22 8.22765094E-05 1.55601763E-04-6.23177053E-04-3.22888873E-05-3.98639719E-05
 1 23-9.64164006E-07 1.02185088E-03 5.79945200E-04-5.69158670E-04-1.57745056E-05
 1 24 5.40474905E-06 1.03697565E-05 1.19568089E-05-6.03251616E-06 8.50955614E-06
 1 25 3.90861535E-05 7.71347615E-05 1.96614141E-05-2.93185352E-05 1.27542695E-05
 1 26-3.62711204E-05-3.35862583E-04 1.89297317E-04 1.76274695E-04 2.95325374E-05
 1 27-2.64717328E-05-3.06080462E-06-3.16538450E-05 1.67438629E-05 2.15507573E-05
 1 28 2.85255197E-05 4.77173505E-05-9.23136645E-04 1.07058966E-05 4.01962987E-06
 1 29-9.49640916E-07-7.29639078E-07 4.14691863E-04-2.62822181E-04 1.43706099E-06
 1 30 5.67805798E-07-2.00486678E-06 7.55600028E-06 1.56447111E-05 1.60668416E-05
 1 31-7.05504372E-06-1.30326099E-05 2.47558303E-04 1.23223850E-05 3.56139806E-06
 1 32-2.39293595E-06-2.03986533E-04-8.83388110E-05 3.64175570E-05 1.49829988E-06
 1 33 6.36919102E-06-7.86749090E-06 4.92177638E-07 1.78092313E-05-9.93935064E-06
 1 34 1.10594108E-04 1.75761753E-04 2.49995461E-03 2.82575100E-05-7.94549156E-05
 1 35-2.26901430E-04 7.67977006E-04-8.00904689E-04-2.89094627E-03-7.45036294E-05
 1 36 2.83841385E-04-2.09337755E-04 5.16618814E-05 2.32999004E-05-9.21798530E-05
 1 37-7.16270208E-06-1.09319289E-05 3.92189869E-04-1.07870532E-05 4.00621344E-06
 1 38 5.94739718E-07-4.20965050E-05-1.66603281E-04 1.10543823E-04 3.38572940E-06
 1 39 2.73621757E-06-6.12194697E-06-4.74926705E-06-3.58965947E-06-1.24129465E-06
 1 40 7.17756171E-06 1.17216492E-05-1.52972281E-04 1.01382642E-06-4.87159302E-06
 1 41 1.46356255E-06 8.20981434E-05-1.64727658E-04 6.28633800E-05-4.61559343E-06
 1 42-1.98515206E-06 6.60074549E-06 3.16623056E-06 2.22045649E-06-9.46373250E-07
 1 43-7.56445757E-05 4.90707701E-05-2.51274450E-05 7.40113221E-06-6.03447677E-07
 1 44 5.59902150E-05 2.05354335E-04-2.14465402E-05 1.05619358E-05 1.81188901E-05
 1 45 5.11217495E-06 2.74000517E-04 1.58376746E-05 2.49497705E-05-5.81995620E-05
 1 46 4.49444838E-05-6.85244836E-05 2.06142420E-06-3.32627832E-07-3.11488804E-05
 1 47-7.40528921E-06-1.45097615E-04 4.55450789E-06-1.63398652E-06 4.67376079E-06
 1 48 7.66529615E-07 3.78457807E-05 3.04686025E-06 1.64191047E-06-3.99172938E-06
 1 49 2.10949665E-05-4.30179332E-05-1.45634387E-05-1.38620198E-06-4.72713867E-06
 1 50 1.01346530E-05 9.91374004E-05 1.16280129E-05-4.32914971E-05-3.42784556E-05
 1 51 1.19591114E-05-4.56254474E-06-4.59112144E-06 5.62613052E-07 8.89906377E-07
 1 52 8.67281998E-05-2.26181355E-04-5.24604493E-05-6.28799891E-04 1.19731359E-05
 1 53-2.73371987E-06 2.69480955E-07-1.80335775E-06 1.15427003E-06-1.02802985E-06
 2  1-2.61441236E-04-1.07232361E-04 4.15524852E-04 1.46768992E-05-2.89643933E-05
 2  2 8.03660135E-06 5.82145295E-05-9.48664757E-05 2.20852475E-05 1.37716561E-05
 2  3-3.52475061E-05 2.14758501E-05 2.03788353E-05-8.64326705E-07 2.94553244E-05
 2  4-3.19031504E-06 1.33019581E-06-3.25344336E-06 3.85775825E-07 4.35023723E-07
 2  5 2.63925277E-07-1.23114126E-06-3.38746219E-06-8.95373862E-07-1.84017094E-07
 2  6 4.66221002E-07-2.82203908E-07 2.42724681E-07-2.08293215E-07-1.53425990E-07
 2  7 1.00146030E+00 2.26967850E-03-6.91482187E-03-6.55152841E-04 1.36262713E-03
 2  8-3.86963689E-04 1.79099441E-03-1.05186939E-03-2.00411743E-04-1.10022169E-04
 2  9 5.21475713E-05 5.78745979E-05 1.44358478E-04-6.13350005E-06-6.96277338E-05
 2 10-1.34977940E-06-2.43621842E-06 2.24156284E-05 2.03061770E-06-2.30534976E-07
 2 11-4.11646278E-08-4.16182624E-06 1.10432268E-05-2.75097633E-06-8.61205027E-07
 2 12 6.20329871E-07 2.40875156E-07-2.30687471E-07 8.03987772E-08-1.46040111E-07
 2 13-5.16214804E-06-9.72981125E-06 1.80171818E-05-5.30753375E-06 6.22319484E-07
 2 14-6.90523470E-07 2.65106002E-05 3.00894340E-06 1.05326749E-06 1.51182257E-06
 2 15-8.18987260E-07-6.92835307E-07 7.01960917E-07 7.86756995E-07 2.66561203E-07
 2 16-2.34577433E-05-4.09748697E-05 6.21129956E-04 6.94114735E-06-1.94801123E-07
 2 17-3.39264243E-06 2.40522780E-04 3.04453563E-06-3.82292655E-05 7.86607212E-07
 2 18-5.33724260E-06 4.55063539E-06 7.51785463E-06-3.97238000E-06-5.48959690E-06
 2 19-1.11256348E-05-2.04870576E-05 6.88784599E-05-5.97828071E-08-1.20981031E-06
 2 20-4.50086509E-06 1.64852627E-05-5.73872796E-05-5.98385248E-06 2.30167328E-06
 2 21 1.74723252E-06-4.04890579E-06-7.88218568E-07-4.03658406E-06 1.17873552E-07
 2 22-4.08171892E-05-7.37405374E-05 4.46205830E-04-4.04939650E-05 7.50805408E-06
 2 23 1.23890815E-05 9.44145655E-04-6.26119407E-04-8.14053618E-05 3.29366016E-05
 2 24-1.49921848E-05-1.79444168E-05-2.27804714E-05-1.02686653E-05 7.15467260E-06
 2 25-2.78784574E-06-1.33995745E-05-2.31442702E-03-4.78587683E-05-1.48626278E-05
 2 26 2.69145085E-05-4.74697201E-04-3.08746601E-04 3.31453118E-04 2.87295732E-05
 2 27-2.27083147E-06-2.64587417E-05-7.46545110E-05 1.81489907E-05 2.47869253E-05
 2 28 9.20683916E-06 1.22284562E-05-2.05274848E-03-4.27230282E-06 3.12305398E-05
 2 29-1.36362406E-05-9.94329972E-04 3.02856332E-04 2.51772739E-04 6.69949998E-05
 2 30-7.42266150E-05 7.23161515E-06 6.79841048E-05-6.72002066E-05 5.61702923E-06
 2 31-1.63279275E-04-3.01726379E-04 3.15254822E-03-3.46271037E-05-1.40580768E-05
 2 32 2.03163563E-05-1.31632233E-03 1.61385337E-03-2.49328274E-04-1.04957702E-04
 2 33 1.76327249E-04-7.13695467E-05-1.56062961E-04 8.84860380E-05-7.50053651E-05
 2 34 5.47900555E-06 9.52082597E-06-8.33278474E-05 1.05226266E-06-1.66331975E-07
 2 35-1.93730008E-07 1.42405108E-06-3.16973510E-05-3.13230640E-05 3.09814290E-06
 2 36-3.37630634E-06 2.78163434E-07-3.09198436E-06 2.92119257E-07 1.68654939E-08
 2 37-8.23526203E-05-1.50509923E-04 2.64447351E-03 1.16611266E-05 5.46875006E-05
 2 38-2.95854429E-05-2.13577089E-03-5.38830815E-04 1.08219742E-03-1.15591900E-04
 2 39 7.96285874E-05 3.59633128E-05 2.86159937E-04-1.19905502E-04-2.00196062E-04
 2 40 2.82993541E-04 5.13791286E-04 1.84828071E-04 1.99538050E-04-6.69900875E-05
 2 41-4.61619054E-05 4.91475745E-03-7.91688240E-04-1.54064754E-03-1.93054788E-04
 2 42 1.72967085E-04 2.00877026E-05 1.30169801E-04 5.54697979E-06-1.70175674E-04
 2 43-2.74691218E-05-2.83644192E-05-1.12850880E-05-2.33119572E-06 7.12174263E-06
 2 44-1.56816009E-05-3.67622240E-05-1.81326196E-06-6.67137883E-07 1.66356318E-06
 2 45 2.58190485E-06-1.02534449E-05-1.60861758E-06 2.53177403E-06-4.44720447E-07
 2 46 7.58329498E-05 4.09521709E-06 2.46282686E-05 3.38202975E-05-2.56347505E-05
 2 47 1.01614546E-04-5.27692876E-05 3.51144384E-05-4.02153296E-05 4.38398793E-06
 2 48-6.05408771E-05 5.41928267E-04 1.24973874E-04 8.37925719E-05-8.76622619E-05
 2 49-5.07262783E-06 1.76796167E-05 2.16061219E-06-1.20776192E-06-5.17591915E-07
 2 50-3.77376068E-06 2.09944223E-05 1.94310313E-06 2.45741505E-07-1.77219252E-06
 2 51-2.45275181E-05-2.81379396E-05 1.22031561E-05 2.66602808E-05-1.72398521E-05
 2 52-2.17813427E-06-6.71229526E-06 7.39387527E-07-9.84094220E-07-8.62178684E-07
 2 53 1.12909137E-04-3.09708319E-04 2.23435213E-04 4.86935294E-04-3.16384498E-04
 3  1 1.00147067E+00 2.28735604E-03-6.99748929E-03 7.30856255E-04 1.20040289E-03
 3  2-8.47643064E-04 2.31938754E-04-1.90148635E-03 8.11291944E-04 1.22887915E-04
 3  3-1.33927766E-04 1.10398512E-05 4.33693435E-05-6.86901536E-05 6.39297339E-05
 3  4 9.88565282E-07 3.94433940E-06-2.30236326E-05 2.36199619E-07-2.29042879E-07
 3  5-5.18890708E-07 1.28399093E-07-3.30627983E-06-1.03368771E-05 1.15051564E-06
 3  6-4.11651421E-09-1.14639913E-06 1.54206712E-07-7.46795506E-07-5.52827592E-07
 3  7 1.49672098E-04-1.17705406E-04 5.55117017E-04 4.22314435E-05-7.41596330E-06
 3  8-1.28957993E-05-2.99640218E-05-5.06847819E-06 1.35988037E-05-2.86251842E-05
 3  9 1.24227328E-06 2.73829109E-05 2.81458279E-05 1.58056860E-05 8.00185331E-06
 3 10-1.48983083E-06-1.76952190E-06 4.75914379E-06-3.19673981E-07 8.19879697E-07
 3 11 2.33982603E-06-1.53366149E-06-2.73270547E-06-8.43837091E-06-2.24056368E-07
 3 12-9.30921512E-08 3.17148520E-07-2.98328060E-07-1.62639812E-06 1.07058656E-07
 3 13-1.63640410E-05-2.90795607E-05 1.12041684E-04-6.16755650E-06 1.94877746E-07
 3 14-2.90450139E-06 6.47265025E-05-2.53050331E-05 3.51900314E-05 3.45322032E-06
 3 15-2.17051342E-06-1.28270690E-06-3.65144902E-06 1.90640340E-06-8.55861259E-07
 3 16-4.77676546E-05-7.70598041E-05 7.39082285E-04 4.18643135E-05-1.90983960E-07
 3 17-1.95525258E-05 3.10080691E-04-3.56914544E-04-4.17007867E-05 5.67022965E-05
 3 18-3.26255821E-05-2.40767145E-05-2.44686869E-05-9.56144373E-06 1.96585279E-05
 3 19 1.41935797E-05 2.25087783E-05-2.40478806E-04-4.27807317E-06-7.38694437E-06
 3 20-4.97347945E-06-3.64171426E-06 1.01206023E-04-9.11418207E-05-3.97658349E-06
 3 21 1.02756205E-05-6.29903700E-06 2.68320221E-06-6.90216655E-06 4.54537033E-06
 3 22 4.40785671E-05 7.09383884E-05-2.24792734E-03-5.91674947E-05 2.47793288E-05
 3 23 1.32891086E-05 9.24113545E-05 9.50385281E-04-4.65075881E-04-8.72862304E-05
 3 24 5.64375125E-05 3.08487179E-05 7.14741350E-05 7.44703940E-06-5.18659756E-05
 3 25-1.50584144E-04-2.62718405E-04 4.24637211E-03-4.63782334E-05-1.67190165E-05
 3 26 2.43313029E-05 7.29741863E-04 1.72651014E-03-1.10059383E-03-1.05347551E-05
 3 27 1.20595230E-05-1.52476789E-06 2.36751056E-04-1.67234029E-04-1.69541161E-04
 3 28-1.48885596E-05-3.00978220E-05-2.01681703E-04-1.33916704E-05 3.27579571E-05
 3 29-8.26888278E-06 2.39047115E-04-1.85189561E-04-1.71821745E-05-2.56919124E-05
 3 30 3.23875008E-05-6.69558838E-06-3.21418040E-05 2.58424605E-05-4.18667433E-06
 3 31 3.02400605E-04 5.39458915E-04 2.91603474E-04 6.52192346E-05-1.79628310E-04
 3 32 6.06288781E-05 3.40620781E-03-4.18987898E-03 6.48599279E-04 1.59492342E-04
 3 33-1.93303862E-04 3.38115202E-05 2.10174267E-04-1.81963773E-04 9.11198890E-06
 3 34-1.25251737E-06-1.57530275E-06 1.02331175E-04-1.04765299E-06 4.58569831E-06
 3 35 3.44876813E-07 7.46732687E-06 4.35456988E-05-6.37976828E-06 2.08474452E-08
 3 36-2.19542223E-06 2.17457479E-06-2.36243766E-06-6.88294129E-06 1.16811974E-06
 3 37-8.71810350E-06-1.76928345E-05-1.83712044E-03 1.11698104E-05 3.80013717E-05
 3 38-2.20597083E-05-2.78462665E-04 5.31131082E-04-1.34915466E-04 4.04519802E-05
 3 39 6.86520533E-07-4.11385008E-05-9.22766277E-05 1.03090132E-05 1.89576067E-05
 3 40-1.08708689E-04-2.16647165E-04 1.51537012E-03 3.32890362E-06 5.41539321E-05
 3 41-2.65801602E-05-1.67759530E-03 1.82369779E-03-2.06207420E-04 2.34827645E-04
 3 42-1.87241604E-04-4.75860410E-05-7.75246389E-05-8.12237332E-05 1.17502004E-04
 3 43-4.75999970E-05-2.87271079E-05 9.30352614E-06 1.00762404E-05-7.70674842E-06
 3 44 1.13443347E-06 7.55797306E-05-2.54022104E-05 1.16513944E-06-4.71828104E-06
 3 45-1.90553380E-06-4.56473853E-05-6.33413720E-06-4.51186585E-06-3.86084712E-06
 3 46-1.06390605E-04 3.98208853E-04-7.63114792E-05-1.19523404E-04 8.60193834E-05
 3 47 2.05748522E-05 5.77963479E-05-8.58460488E-06 1.56233741E-05-3.46862606E-06
 3 48 1.05320858E-04 8.31466540E-06-1.30581697E-05-2.21163288E-05 1.49604924E-05
 3 49-1.53704018E-05 2.48433177E-05 1.59264499E-06 3.44552640E-07-1.92214922E-06
 3 50-2.28016842E-05 1.02838978E-05 8.94618634E-07-5.16731861E-06 1.12384475E-06
 3 51 1.43523409E-04-2.86813449E-04 5.66103691E-04 2.40985711E-05-2.29808301E-04
 3 52 5.20645581E-06-5.15467160E-06 1.08608139E-08-1.50656818E-08 1.36082896E-06
 3 53-4.17172605E-05 1.31328539E-04-5.90879779E-06 1.40689123E-05-4.24389380E-06
 4  1-1.53668487E-07-1.31545454E-06 1.74292082E-05-2.62125132E-06-2.01931766E-06
 4  2-3.78029251E-06 2.95825973E-05 6.95548251E-06 1.70362581E-05-2.24894965E-08
 4  3 6.84600482E-07-6.62110985E-07 2.46928340E-06-1.62939802E-07 1.73070822E-06
 4  4 2.51925195E-04-2.04339109E-04 6.02865191E-04 1.70002216E-05-2.63927550E-05
 4  5-6.33269817E-05 5.22206213E-05 7.49119374E-04-2.92049020E-05 7.12376899E-06
 4  6 6.19435701E-05-6.90673391E-05-1.99631367E-05 3.17253017E-05 1.01823468E-04
 4  7 5.09266632E-07 1.10754595E-06-1.30718362E-05 1.03862502E-06-1.17426621E-07
 4  8 1.29713048E-06-5.61750355E-06 2.17936543E-07-9.23483829E-06 9.96125269E-07
 4  9-6.13315071E-07-3.82810198E-07-6.06736697E-07 1.75807139E-07-8.17979187E-07
 4 10 1.00145209E+00 2.19760407E-03-6.98115071E-03 4.35251338E-04 1.22615352E-03
 4 11-1.26445240E-03-4.32153337E-04-1.22432772E-03 1.23517791E-03-1.85248944E-04
 4 12 9.75259344E-05 8.77230097E-05 6.15725423E-05-9.56022085E-05-9.60063099E-05
 4 13 5.99802655E-05 1.08532866E-04-2.36201366E-04 2.50523175E-06-3.41218034E-05
 4 14-2.79783139E-05-1.79515118E-04 3.31223394E-04 2.10899185E-04-1.14724898E-05
 4 15-4.98154486E-06 1.64540347E-05 2.34676518E-05 2.41647665E-05 1.31688634E-05
 4 16 9.69049025E-05 1.66421378E-04-6.19567330E-04 1.04283695E-05-4.13021512E-05
 4 17-1.22191128E-05-5.99491233E-04 5.81841524E-04 2.38523114E-04-5.52266406E-06
 4 18-1.53484257E-05 2.08710898E-05-9.81450801E-06-3.80962053E-06-3.01211101E-05
 4 19-1.49214321E-04-2.86362669E-04 1.61439163E-03-5.20367160E-07 1.64590118E-04
 4 20 2.02076541E-05 4.28684632E-05-6.07212540E-04-1.21214340E-03 3.74911273E-06
 4 21-1.47387239E-04 1.43638126E-04-6.98607189E-05-4.82886974E-05 2.08539211E-04
 4 22-5.46119429E-05-8.82119023E-05 1.20235337E-03-1.66250038E-05-3.94061966E-06
 4 23 3.58051622E-06-4.33237018E-04-3.00251006E-04 1.51129698E-04 1.77791419E-05
 4 24 1.06439901E-05-2.84231320E-05 6.11317698E-06-3.36975395E-05-1.45916491E-05
 4 25 2.58524575E-05 4.58143536E-05-5.07107728E-04-2.03548575E-05-2.32746420E-05
 4 26-1.90825165E-05 2.73882713E-04-1.48263512E-04 1.76052411E-04 2.88687950E-06
 4 27-5.88117867E-06 2.99429916E-06 9.58136282E-06-8.72031663E-06 2.13257172E-05
 4 28-6.92794692E-06-1.61562194E-05-9.42869545E-06 1.28654354E-05 1.33149431E-05
 4 29-6.27320865E-06-2.88934457E-05 6.23252724E-06 4.33284413E-05 2.08233710E-06
 4 30-8.41570262E-06 6.33336553E-06-6.76214816E-06 2.82369889E-06 6.40842767E-06
 4 31-1.15803770E-05-2.07170312E-05 2.15660907E-05 1.12880071E-05 3.76936862E-06
 4 32 8.61909113E-06-1.23438111E-04 1.73800354E-05-9.88687295E-05 8.33981300E-06
 4 33-7.20348010E-07-7.61946499E-06-3.00024990E-06 4.75154474E-06-5.98229530E-06
 4 34 1.74894696E-04 1.52077873E-04 1.69442782E-03 1.55716083E-05 1.52456695E-05
 4 35-1.02685343E-04-7.54256251E-04-2.41254642E-03 2.51809575E-03 1.74525323E-04
 4 36-4.70529430E-05-1.27472380E-04-1.79028054E-04 1.58305282E-04 6.32048695E-04
 4 37-1.09864698E-05-1.86428760E-05 1.83280462E-04 2.49867250E-06 9.71518713E-07
 4 38 1.80323630E-06-4.70509740E-05-7.06263199E-05 1.80744500E-05 1.03929868E-06
 4 39 3.39368143E-06-4.43298011E-06-1.72300594E-06-5.11542067E-06-2.91669770E-06
 4 40 3.53480148E-09-3.37073321E-07-8.80864453E-05 2.47079302E-07-2.36626716E-06
 4 41-3.13137526E-06 7.13758942E-05-4.98728894E-05 6.24273471E-05-2.33894900E-06
 4 42-3.33074492E-06 5.66969392E-06-1.15332915E-06-2.69296280E-06-3.05153464E-06
 4 43 3.76224293E-05 3.57591011E-05 3.64313527E-05-2.30476560E-05-9.83519913E-06
 4 44-1.65677771E-05-1.62894161E-04 1.74404597E-05-1.40868510E-05-3.78093051E-05
 4 45-1.88135226E-04-1.87836710E-04 9.32533898E-06 1.85932243E-05 5.99522092E-05
 4 46 6.82809120E-05-1.06737535E-04-2.38034858E-06 5.36728923E-06 6.67655017E-06
 4 47 5.84741075E-06 4.08924074E-05 1.29036289E-06-8.10315118E-06 2.04520276E-06
 4 48-1.43302346E-06 1.69366100E-05 3.36541567E-06 2.53184385E-06 7.43906484E-07
 4 49-5.50044668E-05-4.79877963E-05 4.53708667E-05 1.16368261E-05-9.02037803E-06
 4 50 4.28403459E-05-1.18340052E-04 6.58130057E-06 1.07140569E-05-8.50526454E-07
 4 51-5.72298034E-06 3.31057151E-06 3.56223009E-07 2.66833523E-06-3.43556228E-06
 4 52 1.62857981E-04 2.09515292E-05 1.75528288E-05 3.45977100E-05-6.44114076E-05
 4 53 8.46924010E-07 7.17329417E-07-9.16200238E-07 1.45737488E-07 4.13504535E-07
 5  1-1.27519933E-05-2.38281704E-05 9.25082784E-05 2.92345810E-06-2.91543736E-06
 5  2 1.24019827E-06-1.42910710E-05 3.48946523E-05-1.11697023E-05 4.19968310E-07
 5  3 5.26874064E-07-9.46842374E-07-1.70832289E-06 5.37359785E-07 6.13791909E-07
 5  4 9.05558283E-06 2.04858673E-05-5.35793399E-06-2.58037457E-05 1.22460423E-05
 5  5 1.03369507E-05 6.84191901E-05-3.59239679E-05-2.70671711E-05 9.64290568E-07
 5  6 2.73101471E-06-3.69530528E-06 1.97070483E-06-1.24291831E-05 4.40797475E-06
 5  7-5.66326217E-06-1.06392235E-05 2.75445745E-05 3.35958040E-06-7.15645265E-07
 5  8 4.13337696E-07-1.91869203E-05 9.36616512E-06-3.80292293E-06 1.17461768E-06
 5  9-3.66125161E-07-8.08492515E-07-4.67151222E-07-7.34922013E-07-8.31493415E-07
 5 10 2.76767991E-05 5.05085052E-05-1.13407517E-04 2.00421827E-05 1.33756440E-05
 5 11 5.25131639E-06 2.82178981E-05-1.24503693E-04-5.00320100E-05 9.28094021E-06
 5 12-1.79728109E-05 8.69187073E-06 2.43845456E-05-1.39969660E-05-7.28391736E-06
 5 13 1.00177968E+00 3.12910126E-03-6.80410733E-03 1.03110907E-03 4.25569525E-04
 5 14 1.40013573E-03-2.31055350E-03 3.63130191E-04-2.85845247E-04-3.81007745E-04
 5 15 2.59997120E-04 1.21010625E-04 1.06675474E-04-4.12171584E-05-5.07149854E-05
 5 16 8.81070169E-05 1.19282650E-04-2.98758583E-03 1.03650508E-04 8.58170562E-06
 5 17 5.63419820E-05-1.58912689E-03 4.94763500E-04 8.24569061E-04-1.19520592E-04
 5 18 4.00854262E-05 7.94351658E-05-1.61893234E-05-3.37618446E-05 2.35205311E-05
 5 19-3.80619912E-05-1.20598552E-04 3.21233990E-03-1.77471163E-04 1.09850460E-04
 5 20 3.36150607E-05-1.52389284E-03 7.24783041E-04 8.68855329E-04-1.29831652E-04
 5 21 2.52824190E-05 1.04549233E-04 5.04589255E-05 6.78196654E-05-1.66210002E-05
 5 22-1.61064240E-04-2.84160052E-04 1.50385495E-03 5.19920908E-05-5.43907546E-06
 5 23 1.99974906E-05-2.87539027E-03 7.49100642E-04 3.89276837E-04 1.00428762E-04
 5 24-5.03759362E-05-5.00528253E-05-3.12038187E-05-3.69247348E-05 3.47106268E-06
 5 25-3.68649646E-05-6.67190986E-05 7.40084464E-04-5.31325729E-06-2.17395952E-06
 5 26 2.29522644E-06 2.89048966E-04 6.56545580E-04-3.03193585E-04-3.94637782E-05
 5 27 5.49361578E-05-1.54723796E-05 3.02902353E-05-3.99125779E-06-2.79415375E-05
 5 28-4.19994589E-05-7.77889323E-05 6.44809212E-04 6.30736488E-06 1.28981916E-05
 5 29 2.43935514E-06 3.59452445E-04-5.70195158E-04 1.97529416E-04-5.07908430E-05
 5 30 4.29415497E-05 7.84929329E-06-9.12101188E-06 1.63080575E-05-5.20304331E-05
 5 31-2.87165607E-05-5.05077861E-05-1.66233536E-04 1.59225444E-06-4.77707890E-06
 5 32-7.38511515E-07-1.67449646E-04 3.38029044E-05 1.89673984E-05 2.40411012E-05
 5 33-6.52433804E-06-1.75167632E-05-1.02451291E-05-1.16451398E-05-2.52399289E-06
 5 34-1.25657628E-04-2.42382503E-04 3.84844395E-04 3.76934008E-05-1.14913204E-04
 5 35-3.68171712E-05 3.36714582E-05 2.63201003E-04 5.04146069E-05 8.32516841E-05
 5 36-1.99938100E-05-6.32578741E-05-2.15425038E-06-5.68108555E-05 2.28121355E-05
 5 37-2.43811046E-05-4.06316850E-05-1.05404037E-04 9.24018758E-07 5.93680106E-06
 5 38-7.66148819E-06 4.85378865E-05-1.00448155E-04 2.14541158E-05 2.00238156E-05
 5 39-5.55347740E-06-1.44703382E-05-8.41954058E-06-1.89141047E-05-1.11176724E-05
 5 40-1.47624622E-05-2.74665565E-05 1.33594721E-05 4.59598688E-06-2.61244773E-06
 5 41-5.56649953E-06-2.67523521E-05-1.06455466E-04 8.45536494E-05-5.14535676E-07
 5 42 2.06701334E-06-1.55247766E-06 9.27902868E-07-4.68423811E-06-6.03430649E-06
 5 43-1.67745137E-05-3.05084872E-04 1.33988232E-04-6.51846609E-05 3.03641042E-05
 5 44-2.06598944E-05-2.76929951E-04 1.40973766E-04 3.77007458E-05-6.76711258E-06
 5 45-2.25436037E-04 1.69564443E-05 8.70303361E-05-2.76347821E-05-2.81311140E-05
 5 46 1.46995407E-05 3.47213978E-04-7.11160345E-06-1.16756612E-05 2.22099166E-06
 5 47 7.78984192E-06 2.86564184E-04-1.26285997E-05 2.01110600E-05-4.56671649E-06
 5 48 8.72480357E-06 4.00616156E-05-2.57684645E-06 4.14310369E-06-9.17589164E-07
 5 49-1.23156369E-04 1.91964381E-04 8.53276566E-05 7.55365216E-04 1.97311981E-04
 5 50-4.93954452E-05 2.71757706E-04-9.82172468E-05-3.78415733E-04 6.22133594E-04
 5 51-1.40571717E-06 2.84691040E-05 8.45074385E-07 3.37745078E-06-5.81226114E-07
 5 52-1.15668783E-07 7.66327804E-06-2.38021600E-05-4.56143537E-06 1.52075997E-05
 5 53-1.19492518E-06 1.02031105E-05-8.49783001E-07 1.49637948E-06 2.98912075E-07
 6  1 3.33986307E-06 6.38907011E-06-2.19844477E-05-1.65390208E-06 2.19872912E-06
 6  2 7.39347255E-06 4.80863042E-05-1.84679604E-05-5.20519206E-05 8.27953061E-07
 6  3-1.83130996E-06 1.00335690E-06-6.79424921E-07-6.69576103E-07-2.01332787E-06
 6  4 2.08737442E-04 7.20444134E-04-2.48229080E-03-5.88755627E-05 4.13887605E-05
 6  5 2.06892417E-04 4.80838180E-04 4.68974302E-04-1.53467862E-03 2.66379757E-04
 6  6-9.74941384E-05-1.68885618E-04-1.00387714E-05 1.33328258E-04-1.04150488E-04
 6  7 4.78546721E-06 8.43358244E-06-6.36621996E-05 8.18367312E-07-1.48076282E-06
 6  8-4.55057467E-07 1.46819636E-05 5.30013099E-06-2.06440319E-06-5.87426709E-07
 6  9 1.16177547E-06-5.74348763E-07 2.69374166E-07-5.23758735E-07-2.89747722E-07
 6 10-2.53860383E-04 4.25563530E-04-1.14039593E-03 1.31059443E-04 2.65336181E-04
 6 11-4.03596340E-04-2.74375230E-04-6.40854536E-05 1.09695628E-03-4.70969265E-05
 6 12 6.30957752E-05-1.59988487E-05 8.75147724E-05-4.38692398E-05-2.88802915E-04
 6 13-1.22513856E-04-2.32184847E-04 4.77929490E-04-3.08171206E-05 7.55231919E-05
 6 14 2.99998744E-05 3.06298347E-04-6.03436606E-04-7.03158361E-05 8.71902671E-06
 6 15 2.65255824E-05-3.52446091E-05-6.25190231E-05-2.09344263E-05 5.92508410E-06
 6 16-2.47548446E-04-3.91490563E-04 1.33241073E-03-1.51257270E-05 8.56610297E-05
 6 17 3.50114439E-05-2.11427374E-04-7.94665674E-04-5.63562785E-04 4.81835820E-06
 6 18 3.82658090E-05-4.30841672E-05 7.43148244E-05 8.46917931E-05 7.66482756E-05
 6 19 3.01310525E-03 7.45944063E-05 1.24950445E-03 1.33903116E-05-1.72721974E-04
 6 20-8.01277432E-06-1.59632095E-04-1.17204543E-03-5.99659957E-04 2.41244818E-05
 6 21 2.31351683E-05-4.72596502E-05-1.18371632E-05 5.89177619E-06-1.01265900E-04
 6 22-1.14666853E-04-1.76009033E-04 1.07996648E-04 5.79082353E-05 5.55836610E-05
 6 23 3.46478784E-05 4.05884834E-04 1.99021953E-05-2.27847452E-04-1.27464852E-05
 6 24 1.88052569E-05-6.05877170E-06-4.94128229E-05 1.53397224E-05 2.57020758E-05
 6 25-1.32578579E-05-1.78208358E-05-7.74851795E-04 4.49956347E-05-1.23667761E-05
 6 26 5.52113115E-05-6.67556376E-04 1.35667436E-04-6.62533836E-06-5.20010189E-05
 6 27 3.13644160E-05 2.06366029E-05 2.80068064E-05 1.04377670E-05 7.67633743E-06
 6 28 2.70034825E-05 4.94324923E-05-2.66093651E-04-2.10868978E-05-2.07951520E-05
 6 29-1.95242186E-06 1.65994991E-04 2.72446249E-04-5.83056637E-05-1.11388260E-05
 6 30-1.09726223E-05 2.21114482E-05 3.29580587E-06-1.23502606E-05-5.17171758E-06
 6 31-3.45396306E-07 3.26644576E-06 5.00918711E-04-2.92665835E-05 3.54881463E-06
 6 32-6.95817543E-06-5.61174784E-04-1.89920565E-07 3.83201044E-04 1.54485754E-05
 6 33-1.19693225E-05-3.47925292E-06-1.64583803E-05-2.71073967E-05 1.07624834E-05
 6 34 1.00185741E+00 3.69838810E-03-4.33578885E-03 1.43375018E-04-6.98932723E-04
 6 35-6.37974089E-04-8.86969550E-05-3.11513498E-03-1.18276957E-03-7.78368918E-04
 6 36 9.94647209E-05 6.78904197E-04 1.66486428E-04-4.97575823E-04-2.44943063E-04
 6 37-8.99079908E-08 9.69775734E-07 2.25934811E-04-2.94680592E-06-2.29344502E-06
 6 38 5.52651102E-06 1.06077190E-04-1.98889352E-04 1.39619365E-05 5.42758478E-06
 6 39-4.48715332E-06-9.40431458E-07 4.86293768E-06 2.78540778E-06-3.12089048E-06
 6 40-8.70470187E-07-9.90578864E-07 8.47770191E-05-2.85828303E-06 6.14454518E-06
 6 41 8.52163805E-07 5.87035003E-05-3.64243173E-04 1.01769746E-04 9.09091604E-06
 6 42-5.97580056E-07-8.49333598E-06 7.01848245E-06-4.33190757E-06 5.23026156E-06
 6 43-1.01980910E-04-4.33168872E-05-1.43570310E-05 6.17389752E-05-2.88283437E-06
 6 44 2.22110852E-05 4.40518257E-04-1.38523455E-05-3.79160732E-06-2.52730752E-06
 6 45-8.74714786E-06 2.06981567E-04-3.17701972E-06-1.38231656E-04 3.31411585E-06
 6 46-5.01528636E-05 1.69123528E-05 4.53581128E-05-1.31182144E-05 1.48012339E-05
 6 47 1.48618342E-05-1.01183128E-04-1.77495824E-05-1.15207364E-05-2.00747664E-06
 6 48-4.71642758E-06 1.85783098E-05-2.21477050E-06 6.89610644E-06 1.18389653E-06
 6 49 1.68934889E-04 1.89250767E-04 5.83245406E-06-1.28067872E-05-2.35798462E-05
 6 50-1.39279441E-04 1.43968367E-04 1.73037818E-05-2.75906783E-06-7.74810697E-06
 6 51-5.64716330E-06 4.39330631E-06 3.73558155E-06 8.86420196E-06-2.56512538E-06
 6 52 6.13500921E-04-2.03413632E-04-2.21173483E-05 2.72547991E-04 1.52346628E-04
 6 53 8.98946798E-06-6.28648271E-06-2.77962669E-06 9.02384503E-07 2.16201700E-06
 7  1 2.78686731E-05 9.86290925E-05-2.79237223E-04-2.48355547E-05 5.12536432E-05
 7  2-1.52659212E-05-7.75214027E-05-4.73610823E-04 2.55869183E-04-2.52407983E-05
 7  3-2.45459783E-05 4.97867766E-05 5.55058183E-05 1.44401990E-05 2.77678661E-05
 7  4 4.03965203E-06 7.27735548E-06-3.87194400E-05 1.45677064E-06 5.36488074E-07
 7  5-7.23995488E-07-4.46226340E-06-5.26883705E-06-1.33387415E-05 1.14802871E-06
 7  6-2.38785357E-07-9.09243356E-07 2.47317769E-07-8.00120443E-07-3.14625420E-07
 7  7 3.72108338E-04 9.37369496E-04-3.08722893E-03-2.36609070E-04 4.42867077E-06
 7  8 8.90048176E-05 1.60169702E-03-4.87379817E-04-3.88639422E-04-2.55552157E-04
 7  9 6.78978178E-05 1.87654339E-04 1.20511541E-04 1.81923980E-04 6.65166998E-05
 7 10-7.27222261E-08-2.22983507E-08 7.02234070E-07 2.56020235E-06 4.80291777E-07
 7 11 3.09424549E-06-1.43107493E-05-6.79756840E-06-9.91956355E-06-1.03205041E-06
 7 12 3.15903036E-07 7.16147377E-07-1.22146362E-06-2.59993159E-07 1.23572337E-08
 7 13-1.23272804E-05-2.17741325E-05 9.04775760E-05-3.56466700E-06 1.11139344E-06
 7 14-2.84948261E-06 4.57364666E-05-3.04354888E-05 3.39695653E-05 1.71747703E-06
 7 15-1.61176384E-06-1.05713194E-07-2.48603898E-06 8.26414145E-07-1.37202182E-06
 7 16-6.22239313E-05-1.09527080E-04 1.05036646E-03-3.42367231E-06 1.28229755E-05
 7 17-5.98195040E-06 3.95686327E-04-3.41870141E-04-7.42166520E-05 8.51884096E-06
 7 18-2.48468642E-06-6.03415455E-06-1.58199078E-05 1.79903602E-07-3.18326985E-06
 7 19 1.69117208E-05 3.08310222E-05-2.81316916E-04-2.28352605E-06-7.17005735E-06
 7 20-3.75000614E-06-1.64210571E-05 1.59284034E-04-6.00398328E-05-5.38960620E-07
 7 21-7.36064219E-07 1.27502484E-06 5.66231436E-06-4.61259111E-06 3.46674601E-06
 7 22-2.63989828E-04-1.74594490E-04 2.23569270E-03-1.50027201E-05 2.32656443E-05
 7 23-4.93609337E-06 1.80852286E-03-1.83405045E-04-5.99035569E-04-1.56303968E-06
 7 24 4.52143824E-05-4.36513427E-05-1.43614165E-05-3.32786362E-05-6.18847683E-05
 7 25 1.76387337E-03-1.02357136E-04-7.24206518E-04 4.21916359E-05-3.49744599E-05