 $SYSTEM MWORDS=2500 MEMDDI=389 $END
 $CONTRL MAXIT=200 SCFTYP=RHF RUNTYP=ENERGY ISPHER=1 UNITS=ANGS
  EXETYP=RUN COORD=UNIQUE ICHARG=0                   $END
 $BASIS gbasis=CCD                                   $END
 $SCF DIRSCF=.TRUE.                                  $END
 $SCF DIIS=.TRUE.                                    $END
 $SCF SOSCF=.FALSE.                                  $END
 $GUESS GUESS=MOREAD                                 $END
 $STATPT NSTEP=1000                                  $END
 $ELMOM IEMOM=0                                      $END
 $DATA
 trinitrotoluene HF/CCD local minima geometry
C1
O     8.0     0.63928330    -3.36726522     0.52555496
O     8.0     0.61463952     3.37290788     0.57799268
O     8.0     2.19443703    -2.58138037    -0.66403908
O     8.0     2.17544794     2.61731887    -0.62363917
O     8.0    -3.51712894    -1.06310344    -0.09622017
O     8.0    -3.52488995     1.04837883    -0.08031030
N     7.0     1.18832386    -2.48356652    -0.04397733
N     7.0     1.17015469     2.50225210    -0.00524438
N     7.0    -2.98219204    -0.00548053    -0.07430548
C     6.0     1.29568410     0.00939910     0.03115400
C     6.0     0.53997099    -1.16860557    -0.00709411
C     6.0     0.53131276     1.18225968     0.01098604
C     6.0    -1.52213609    -0.00044571    -0.03796490
C     6.0    -0.84132588    -1.19843531    -0.02759584
C     6.0    -0.85015982     1.20222354    -0.00911302
C     6.0     2.80210090     0.01386502     0.16795848
H     1.0    -1.37051845    -2.13591218    -0.03506250
H     1.0    -1.38616967     2.13582110    -0.00212781
H     1.0     3.26478338     0.02335156    -0.81689602
H     1.0     3.13337994     0.89460683     0.70558608
H     1.0     3.13980222    -0.87268966     0.69185787
 $END
--- CLOSED SHELL ORBITALS --- GENERATED AT Wed Jun 24 03:38:34 2015
 trinitrotoluene HF/CCD local minima geometry
E(RHF)=     -880.2026043631, E(NUC)= 1113.6577469982,   14 ITERS
 $VEC
 1  1 3.81111776E-04-1.11029746E-06-1.58541408E-05-2.26216574E-06-1.81233113E-06
 1  2-2.47373058E-06 1.81594668E-05-1.58043510E-05 1.61667396E-05 2.91432942E-06
 1  3-3.40254926E-06 4.88219837E-07 1.04810474E-06-2.41343674E-06 3.36054305E-06
 1  4-2.55008027E-02-2.61487644E-04 1.04962245E-03-9.34617602E-05 2.43623121E-05
 1  5 7.65499573E-05-1.45996402E-04-6.36471999E-04-9.86032669E-05-1.00496318E-04
 1  6 1.74487318E-04-7.39909995E-05 5.37801528E-05 5.63798974E-05 3.71934333E-05
 1  7-1.87933644E-02-3.63729657E-05 1.32218812E-04 3.66053349E-05-3.87578479E-06
 1  8-1.75291523E-05-4.27026003E-05-3.75017570E-06 1.69830520E-05-2.62063089E-06
 1  9-3.49104457E-07 2.96973535E-06 2.18932042E-06 1.98350139E-06-1.35315062E-06
 1 10 1.00079519E+00 1.86944320E-03-6.78326357E-03-1.74120870E-03-2.75782722E-04
 1 11 1.08123947E-03 2.14926735E-03 3.93128901E-04-1.31719406E-03 9.88374343E-06
 1 12 7.54617789E-05-8.53455223E-05 3.83683800E-05-1.15120513E-04 6.27272978E-05
 1 13-2.70613345E-05-7.42653867E-06 7.59527460E-05 1.91746310E-06 2.13824806E-06
 1 14 3.08324788E-08 6.70934073E-06 1.94790156E-05-2.31123313E-06-7.80769164E-07
 1 15 3.76636469E-07 4.04132695E-07 1.04174980E-06 1.58165495E-07-7.09648546E-07
 1 16-6.05195310E-05-1.54799526E-06-7.92210277E-05-6.55981169E-06 1.16744281E-06
 1 17 4.77756349E-07 5.17639605E-07 4.08863744E-05-4.90094655E-06 3.63901640E-06
 1 18-2.26583321E-06-1.37318319E-06 3.10930119E-06-1.28537694E-07 1.11421762E-06
 1 19-2.79067875E-05-4.59749853E-05 2.80771119E-04 8.84794437E-06-4.10452752E-06
 1 20 1.56666014E-06-1.45597143E-04 1.05794970E-04 1.28007001E-05 6.60899082E-06
 1 21-5.14378565E-06-1.46520517E-06-4.13989470E-06-9.27509173E-06-3.85245180E-06
 1 22 2.35300871E-04 2.09434263E-04 7.10274285E-04-1.38846322E-04-6.00644656E-05
 1 23 8.87826795E-05 2.84987021E-03 7.15620958E-04-1.67218101E-03-3.18994675E-04
 1 24 2.66537861E-04 5.24568147E-05-8.56042436E-05 4.30727479E-04 5.04540568E-05
 1 25-1.27637467E-05-2.25478263E-05 1.26833500E-04 1.52959532E-06-7.94093036E-06
 1 26-3.38764843E-06 3.44686020E-05 1.95764273E-04 2.01823445E-05 5.56345124E-06
 1 27-1.49306473E-06-4.07038651E-06-3.82991101E-06 1.19607579E-06 6.40458476E-07
 1 28 3.02193068E-05 3.07587633E-05-6.61078678E-04 4.93824720E-05-3.03284021E-05
 1 29 4.77999648E-05-9.51454851E-04-4.23035541E-04-1.13340644E-04-1.38295973E-05
 1 30-6.00811080E-05 7.39107053E-05-1.48820673E-05-2.38752120E-05 3.27038076E-05
 1 31-3.72565760E-05-6.36092671E-05-2.80490215E-04 1.23979601E-06-1.33774634E-05
 1 32-5.57957016E-06-9.39544708E-06 5.43820929E-04 5.21450626E-05 1.43694011E-05
 1 33 1.89458143E-05-3.33152153E-05 2.17735360E-05 1.57342591E-05 3.27533299E-06
 1 34-5.57211409E-05-1.01588656E-04 8.51961212E-04-8.01173699E-05-5.27753756E-05
 1 35 8.81827977E-05 1.04053215E-03 1.95737813E-03 1.84947431E-04-1.37326614E-04
 1 36 2.41167451E-04-1.03840837E-04-1.23514120E-04-4.13691156E-05 1.55221320E-04
 1 37-8.38685055E-06-1.78276916E-05-2.66415868E-04-1.20514708E-05-6.97564657E-06
 1 38 3.21067772E-06 5.50693058E-05-8.02860191E-04-4.18848429E-05-8.29057757E-06
 1 39 5.83028886E-06 2.46028871E-06-9.61350223E-06-4.99165747E-06-1.19536932E-05
 1 40 8.31094267E-06 1.17117994E-05-5.13467981E-04-9.12744951E-06-4.15539950E-06
 1 41 2.32213662E-06 2.84982621E-04-4.06261372E-04-5.81489824E-06-5.48796677E-06
 1 42-2.83130765E-06 8.31927442E-06-7.06593041E-06-9.61503215E-07-7.60782502E-07
 1 43-4.49187889E-05-6.43548127E-05 1.36672156E-03 4.37384463E-05-2.70467972E-06
 1 44-2.13647469E-05-5.81446300E-05-7.75454672E-04 6.09531744E-06 4.82318776E-05
 1 45 3.02880107E-05-7.85198883E-05-6.34196622E-05-2.56511227E-05-6.26954375E-06
 1 46-6.74001469E-05-1.23715631E-04 9.59466213E-04-2.32157929E-05-3.73051175E-05
 1 47 4.02592752E-06-4.49963925E-04 3.89231407E-04-2.80380726E-04 3.04320931E-05
 1 48-6.04401103E-05 3.00080172E-05 2.65669996E-05-3.32908193E-05 1.65414246E-05
 1 49 1.26264085E-06-3.84268275E-05-4.79082165E-06 1.41024628E-05 1.46990722E-06
 1 50-1.69299250E-05 8.14288219E-05-8.21559313E-07 5.56947266E-05-9.19289911E-06
 1 51-1.39652192E-04-1.38974981E-04 3.46557547E-05-5.53782315E-05-2.90108016E-05
 1 52-1.20188949E-04-5.40514883E-05 2.60793851E-05-2.05825392E-05 1.28821352E-05
 1 53 6.08682942E-05 2.90522577E-04-5.64871252E-06 2.87173933E-05-2.30936300E-05
 2  1-2.60706781E-02-2.62718094E-04 1.05379153E-03-9.39063589E-05-2.71906996E-05
 2  2 7.66495725E-05-1.49524956E-04 6.37838407E-04-8.88299035E-05-9.97821302E-05
 2  3 1.74697572E-04-7.49154414E-05-5.69608497E-05 5.58123962E-05-3.21917442E-05
 2  4-5.85214291E-04-1.09611383E-05 2.37132823E-05-5.79235174E-06 2.75792941E-06
 2  5 4.35137075E-07 1.25803784E-05-8.29250110E-06 1.27037485E-05-8.47658988E-07
 2  6 3.23556711E-06-2.38790812E-06 1.05825833E-06-2.85518845E-07-2.04661898E-06
 2  7 1.00078056E+00 1.86937519E-03-6.78323424E-03-1.74296212E-03 2.45623518E-04
 2  8 1.08539440E-03 2.15207283E-03-3.56924681E-04-1.32336468E-03 1.02380177E-05
 2  9 7.66985849E-05-8.69366026E-05-3.70146468E-05-1.15222706E-04-6.07473475E-05
 2 10 1.87870010E-02 3.38362105E-05-1.22545116E-04-2.88070539E-05-5.92405685E-06
 2 11 2.31362133E-05 3.80041427E-05 1.79218725E-05-3.24153293E-05-2.22663956E-06
 2 12 2.42122921E-06-1.94589650E-07-7.98412528E-07-2.38297214E-06 3.66159858E-06
 2 13-6.13778003E-05-1.80764894E-06-7.64918542E-05-6.47726516E-06-1.14701712E-06
 2 14 4.62547338E-07 1.03778004E-06-4.01028060E-05-5.60138420E-06 3.64817518E-06
 2 15-2.26294897E-06-1.38522620E-06-3.01885735E-06-1.61927649E-07-1.15544168E-06
 2 16-2.94775318E-05-7.50036134E-06 7.30869709E-05 1.68545471E-06-2.08622153E-06
 2 17 1.47740720E-08 6.90147813E-06-1.78671269E-05-2.77295686E-06-6.29549062E-07
 2 18 2.58423124E-07 3.71125939E-07-9.37020134E-07 1.33415646E-07 7.49405254E-07
 2 19 2.34240486E-04 2.07680818E-04 7.21124997E-04-1.39030593E-04 5.74159052E-05
 2 20 8.98333456E-05 2.85210005E-03-6.62670740E-04-1.68446726E-03-3.20030185E-04
 2 21 2.68929589E-04 5.11005954E-05 7.37686390E-05 4.32133371E-04-4.36383923E-05
 2 22-1.90667294E-05-3.81025033E-05 3.07288615E-04 3.60864212E-06 1.89359387E-06
 2 23 4.97440687E-06-3.78496004E-05-8.01040744E-05-5.17806478E-05-5.40505093E-06
 2 24 4.79922029E-06 6.05830642E-07 1.17960770E-06 6.93983359E-06 5.60435632E-06
 2 25-1.32438955E-05-2.33949779E-05 1.31623611E-04 1.53115338E-06 7.70680804E-06
 2 26-3.38716884E-06 3.71973725E-05-1.88663243E-04 1.79375980E-05 5.72736986E-06
 2 27-1.48380592E-06-4.24356394E-06 3.72868781E-06 1.30041751E-06-5.63065613E-07
 2 28 3.12911084E-05 3.17767890E-05-6.85488981E-04 5.10170783E-05 2.88979504E-05
 2 29 5.00645817E-05-9.90011619E-04 3.99039405E-04-1.10886365E-04-1.45312083E-05
 2 30-6.12865755E-05 7.58177837E-05 1.51407277E-05-2.42878249E-05-3.40263776E-05
 2 31-5.71662086E-05-1.04066522E-04 8.40552640E-04-8.05375835E-05 5.03664982E-05
 2 32 8.88671722E-05 1.05178758E-03-1.93307208E-03 1.56293684E-04-1.38382178E-04
 2 33 2.47606192E-04-1.09224013E-04 1.21863859E-04-3.78408470E-05-1.49120134E-04
 2 34-3.94063782E-05-6.75179248E-05-2.47107870E-04-1.87315353E-06 1.14705512E-05
 2 35-2.06651942E-06 3.52402015E-05-4.72150620E-04 5.06596971E-05 9.49466815E-06
 2 36 2.78409679E-05-3.73356361E-05-2.67446556E-05 1.38582433E-05 3.58345725E-06
 2 37-8.70222266E-06-1.85009540E-05-2.76378796E-04-1.25621355E-05 6.57299992E-06
 2 38 3.42776602E-06 5.12915705E-05 7.74851588E-04-3.11052918E-05-8.74386967E-06
 2 39 5.85992930E-06 2.88394037E-06 9.23500680E-06-5.11735847E-06 1.15399239E-05
 2 40-4.46112363E-05-6.39066170E-05 1.34664511E-03 4.33644218E-05 3.19718501E-06
 2 41-2.12402817E-05-5.44794291E-05 7.60042087E-04 1.79464115E-05 4.72063556E-05
 2 42 3.08713931E-05-7.80777487E-05 6.37003103E-05-2.47551494E-05 8.01800195E-06
 2 43 6.61441692E-06 9.27678148E-06-4.62082925E-04-7.51404935E-06 3.94909161E-06
 2 44 1.57796616E-06 2.80686538E-04 3.79970236E-04 7.37517239E-07-3.76583404E-06
 2 45-1.62029942E-06 5.38613346E-06 4.66077664E-06-1.81645852E-06 3.17799841E-07
 2 46-6.99611960E-05-1.28424739E-04 9.95340884E-04-2.43252511E-05 3.56989395E-05
 2 47 4.77797421E-06-4.64069833E-04-3.73220041E-04-2.97198461E-04 3.19035779E-05
 2 48-6.25790820E-05 3.06755041E-05-2.43363788E-05-3.48032327E-05-1.78340785E-05
 2 49-1.68925008E-05 7.98240675E-05-5.69820133E-07-5.50724851E-05-1.00238082E-05
 2 50 5.96672731E-07-3.54149652E-05-4.73860047E-06-1.20814263E-05 9.04099183E-07
 2 51-1.44900458E-04-1.44336262E-04 3.55811622E-05 5.40191389E-05-2.92229334E-05
 2 52 5.64160780E-05 2.88549263E-04-4.48852018E-06-2.92100153E-05-2.30467367E-05
 2 53-1.17932383E-04-4.29522904E-05 2.57575153E-05 2.16366956E-05 1.23216566E-05
 3  1 1.00092353E+00 1.84891989E-03-6.73279293E-03 8.86033201E-04 1.58858414E-03
 3  2-9.86654183E-04-1.08045622E-03-1.96248021E-03 1.20981655E-03 2.81503535E-06
 3  3 8.24330287E-05-8.52480641E-05-3.97012701E-05-1.23812803E-04-3.40410754E-05
 3  4-6.85416287E-03-2.17164284E-05 9.63186090E-05-3.75113114E-06 9.77183677E-06
 3  5 8.76516212E-06 6.33152554E-06-1.44559916E-05-2.82267038E-05 7.99813382E-07
 3  6-2.57754381E-06 1.77773043E-06-8.00904583E-08 1.17542529E-06 9.04903299E-07
 3  7 2.58620204E-02-1.55738857E-04 6.37696818E-04-1.00722634E-05 7.55434508E-05
 3  8-2.07816443E-05-2.42206600E-04 4.72101378E-04 6.19343406E-05 1.16741498E-05
 3  9 5.63685510E-05-6.80427008E-05-1.62857330E-04-7.95668693E-06 7.73617061E-05
 3 10-6.93123819E-05-2.20533077E-06-4.57416351E-05 2.47832884E-06 4.21407773E-06
 3 11 5.33292838E-07 1.67068102E-05-7.20620575E-06-2.03460539E-05-1.72297358E-06
 3 12 3.99077516E-06-2.26780158E-06-9.12567309E-07 3.72639260E-07 1.48514572E-06
 3 13-2.82817021E-04-4.48173006E-05 2.57119749E-04-4.03480975E-06 9.76041074E-06
 3 14 3.17693981E-06 7.97896937E-05 4.10893776E-05-1.23153543E-05 3.60893319E-06
 3 15-1.76769181E-06-1.84124138E-06 3.95412233E-06-1.00990781E-06-1.27722794E-06
 3 16-6.65690035E-05 9.44575734E-06-1.95679200E-04-6.69322611E-06 8.16398759E-06
 3 17-2.03483294E-07-1.60820245E-05 6.67453641E-05-5.30974644E-06 4.01425380E-06
 3 18-2.68935006E-06-1.32490374E-06 2.47365943E-06 2.20578964E-07 1.24641393E-06
 3 19 2.25108084E-04 1.81108264E-04 1.11721805E-03 3.20346141E-05 1.53548478E-04
 3 20-7.62894504E-05-1.14835260E-03-2.69430633E-03 1.43739459E-03 8.92064720E-05
 3 21-1.76933560E-04 8.77270875E-05-3.32452891E-04 2.31116692E-04 3.46682536E-04
 3 22-1.63094130E-05-2.77565436E-05 7.96287461E-05-1.87874692E-06 3.80583490E-06
 3 23 2.96557471E-06 1.07416646E-04-1.13284216E-04-4.27861279E-05-1.53136967E-06
 3 24 6.80904288E-06-5.27767321E-06 9.18650079E-07-5.47118804E-06 1.26466877E-07
 3 25-2.25363230E-05-4.31238455E-05 1.90822838E-04-2.96546482E-06-1.20270206E-05
 3 26-3.75132224E-06 2.67671912E-06 4.59476490E-04 3.92035514E-05-5.21466217E-06
 3 27 3.33846990E-07 4.88081518E-06-4.97194887E-06 4.06925689E-06-5.77859669E-07
 3 28-3.88764417E-05-5.93514685E-05 7.61818850E-04-4.57700972E-06-2.94940434E-05
 3 29 2.28537508E-05-1.05522000E-03 8.90930769E-04-3.15884925E-05 6.17511407E-05
 3 30-4.90312982E-06-5.68480109E-05 4.40104356E-05-8.33170221E-06-3.07901238E-05
 3 31-5.17041407E-05-9.89183041E-05 2.95650953E-04-1.54544796E-05 8.36258300E-05
 3 32-7.68864921E-05 1.78526769E-03-1.20141510E-03-2.24790457E-04 1.87133061E-04
 3 33-9.14565617E-05-9.56764991E-05-1.61103400E-04-1.44985460E-04 5.59918927E-05
 3 34-1.23217240E-05-2.46259834E-05-3.36161127E-04 2.06527065E-06 1.30840950E-05
 3 35-2.18521974E-06-8.83298948E-04 5.32168834E-04 1.52762782E-05 1.99098662E-05
 3 36-1.61382121E-05-3.77165418E-06-3.04539265E-06 8.97716585E-06-6.44007501E-06
 3 37-8.98732534E-05-1.53272551E-04 1.19971455E-03-3.54681115E-06 2.34355058E-06
 3 38 1.18606686E-05 6.92143243E-04-1.79323051E-03-1.03149560E-04 2.29403154E-05
 3 39 4.10248405E-05-6.39651558E-05-4.17219555E-05 6.45926772E-06 1.00474069E-05
 3 40 9.16485054E-06-7.06321631E-06-9.41788338E-04-3.96196246E-05 1.71866891E-05
 3 41-5.32242398E-05 1.19619134E-03-8.39985037E-04 1.98608648E-04-1.67322047E-05
 3 42-3.01567710E-05 4.68889757E-05 6.30198597E-05-3.10236043E-05-1.44318203E-05
 3 43-2.09752418E-05-3.96451565E-05 1.01434802E-04 2.96974938E-06 1.25858417E-05
 3 44-3.26757867E-06-9.58102379E-04-3.16661357E-04 1.12601380E-05 9.38424290E-06
 3 45-5.06086459E-06-4.32337831E-06 9.33682687E-06-2.04783451E-06-3.78142300E-06
 3 46-2.46461550E-05-4.30169028E-05 6.55015415E-04-2.92091581E-06-5.54096853E-06
 3 47 1.22737613E-06-1.29243726E-04-9.22230599E-05-6.34415910E-06-1.90719188E-05
 3 48 1.32928618E-05 5.77905705E-06 2.64247845E-05-2.44432414E-06 8.21659253E-06
 3 49-2.31703014E-05 7.39682394E-05-6.27577472E-05 4.75827407E-05-2.09508366E-05
 3 50-2.15966031E-05-4.82240082E-05 2.42349963E-05-1.73051745E-08-2.80714733E-06
 3 51-1.91666249E-05-4.17521834E-05-4.76158718E-06 4.28515994E-06-1.51890030E-05
 3 52-4.70168748E-05 2.74706689E-05-5.46957715E-06 1.39002066E-05 7.45201129E-06
 3 53 3.39203542E-06-1.53239257E-04-1.53713197E-06-1.56459303E-05 7.27321979E-06
 4  1 6.83923749E-03 3.59040685E-06 4.12312161E-06 8.44285851E-06 1.17942328E-05
 4  2-4.88457162E-06-8.58717146E-06-1.19397095E-05-1.14221187E-05 8.40584582E-07
 4  3-1.42664028E-06 5.86055697E-07-4.57776718E-07-5.07498520E-07-1.43692337E-06
 4  4 1.00093791E+00 1.84872640E-03-6.73205520E-03 8.97662359E-04-1.56635923E-03
 4  5-1.01120145E-03-1.09468778E-03 1.93551081E-03 1.23993108E-03 2.38968785E-06
 4  6 8.18385199E-05-8.42282077E-05 4.09945217E-05-1.23442032E-04 3.61024447E-05
 4  7 2.78680513E-04-4.34548682E-06-3.69912574E-05 2.38070898E-06-3.16947594E-06
 4  8 1.73730602E-07 1.33559333E-05 1.41195549E-05-1.93730855E-05-1.57775827E-06
 4  9 4.81236299E-06-3.23460472E-06-1.36964898E-06 2.91769624E-07-3.08592015E-07
 4 10 2.52974783E-02-1.56836742E-04 6.40407401E-04-8.43734439E-06-7.50747664E-05
 4 11-2.26097414E-05-2.39502575E-04-4.75054305E-04 5.49457753E-05 9.50792366E-06
 4 12 6.05894405E-05-7.00973642E-05 1.62463310E-04-4.76676208E-06-7.50812083E-05
 4 13-7.11938022E-05 8.81074330E-06-1.92009549E-04-6.68605269E-06-8.07099124E-06
 4 14-2.86432806E-07-1.44618170E-05-6.61595857E-05-6.45967390E-06 4.09396266E-06
 4 15-2.70875824E-06-1.38520442E-06-2.36049493E-06 1.81430127E-07-1.28362540E-06
 4 16-2.88717524E-04-4.47131256E-05 2.54501043E-04-4.06522568E-06-9.72003417E-06
 4 17 3.01971916E-06 7.99102265E-05-3.94082699E-05-1.29653477E-05 3.71839844E-06
 4 18-1.88796310E-06-1.83043534E-06-3.85998203E-06-1.07043306E-06 1.28452221E-06
 4 19-1.32562945E-05-2.53239361E-05 9.51742220E-05-1.40758253E-06-1.76603084E-06
 4 20 1.86158410E-06 9.07767179E-05 7.78574851E-05-2.13359255E-05-2.95682906E-07
 4 21 4.37845388E-06-4.08277097E-06-5.44907395E-06-2.32844129E-06 4.78535160E-06
 4 22 2.24740962E-04 1.80606364E-04 1.11786615E-03 3.31848498E-05-1.51954968E-04
 4 23-7.86487239E-05-1.16786995E-03 2.66099853E-03 1.47933896E-03 8.51646518E-05
 4 24-1.63350571E-04 7.81859194E-05 3.30988923E-04 2.38484488E-04-3.49505586E-04
 4 25-2.28191193E-05-4.36680805E-05 1.92980838E-04-3.09001490E-06 1.18895821E-05
 4 26-3.61863365E-06 6.02800915E-06-4.53579931E-04 3.27245444E-05-5.34327034E-06
 4 27 3.80623280E-07 4.96264706E-06 4.78692570E-06 4.18988036E-06 5.20798821E-07
 4 28-3.93703803E-05-6.00877205E-05 7.71125425E-04-4.87225859E-06 2.87094553E-05
 4 29 2.36339070E-05-1.06223237E-03-8.86203690E-04-4.60354317E-05 6.31615690E-05
 4 30-6.35636564E-06-5.68052034E-05-4.26718960E-05-9.32781304E-06 3.11860884E-05
 4 31-1.30314685E-05-2.59857626E-05-3.32051226E-04 1.95587679E-06-1.18873817E-05
 4 32-3.43671116E-06-8.54929068E-04-5.54874271E-04 4.06690706E-06 2.24325001E-05
 4 33-1.75301672E-05-4.90233289E-06 1.00787430E-06 7.01067719E-06 7.05454095E-06
 4 34-5.18779924E-05-9.92635418E-05 2.90481878E-04-1.47981625E-05-8.23917545E-05
 4 35-7.82715411E-05 1.76516336E-03 1.22380178E-03-2.05467519E-04 1.85387858E-04
 4 36-8.81408941E-05-9.72469634E-05 1.65607318E-04-1.41871557E-04-5.69776560E-05
 4 37-9.10749001E-05-1.55319169E-04 1.21588999E-03-3.57398052E-06-2.52346939E-06
 4 38 1.19901769E-05 6.87825884E-04 1.77486464E-03-7.68947473E-05 2.27167518E-05
 4 39 4.23546791E-05-6.50714309E-05 4.08724479E-05 7.25376421E-06-7.97717350E-06
 4 40-2.08546847E-05-3.97498201E-05 8.86827914E-05 2.51099909E-06-1.22689934E-05
 4 41-4.17787599E-06-9.43845900E-04 2.97871895E-04 1.87356234E-05 9.26653490E-06
 4 42-5.68201241E-06-3.58452249E-06-8.32000460E-06-2.64956661E-06 3.55409836E-06
 4 43 8.80591903E-06-7.73539300E-06-9.38872106E-04-3.94892370E-05-1.64805252E-05
 4 44-5.35368609E-05 1.17745264E-03 8.41246155E-04 2.11596243E-04-1.58093517E-05
 4 45-3.13737945E-05 4.71831462E-05-6.22669170E-05-3.21321826E-05 1.27729080E-05
 4 46-2.49725037E-05-4.35817949E-05 6.63691946E-04-2.99630450E-06 5.43863460E-06
 4 47 1.32332614E-06-1.31477861E-04 9.01230328E-05-4.77470158E-06-1.90144083E-05
 4 48 1.33966457E-05 5.61776261E-06-2.63106593E-05-2.82750714E-06-8.00618425E-06
 4 49-2.19166743E-05-4.72009695E-05 2.33696476E-05 8.89212094E-07-3.08680812E-06
 4 50-2.35226416E-05 7.33433738E-05-6.21056089E-05-4.77288107E-05-2.17043456E-05
 4 51-1.93687831E-05-4.22883074E-05-4.79500995E-06-4.01879997E-06-1.54553029E-05
 4 52 2.76822971E-06-1.53014707E-04-1.73164725E-06 1.57266781E-05 7.61972139E-06
 4 53-4.70139867E-05 2.53087390E-05-5.38787796E-06-1.42932895E-05 7.33287029E-06
 5  1-1.10684014E-04 1.13688417E-05-6.04903071E-05-6.73516410E-06-1.41584852E-07
 5  2-3.84725503E-06 2.75901440E-05-1.63903775E-06 3.48083812E-05-1.55600320E-07
 5  3 4.10369214E-06-3.94809182E-06 2.47068684E-06-2.17952256E-06 2.22290487E-06
 5  4 1.39940285E-04-1.36021085E-05 6.36130581E-05 8.16674786E-06 2.84744600E-07
 5  5 4.41260648E-06-3.52693980E-05-2.40536360E-06-3.63140063E-05 1.84910703E-07
 5  6-4.18554313E-06 4.00063243E-06 3.20998167E-06 2.74714547E-06 2.34804382E-06
 5  7-2.25253629E-05 4.87815577E-06 4.88437899E-05-2.83358111E-06 2.45662153E-06
 5  8-7.22028755E-07-4.63425037E-06-2.56370230E-05 3.72660386E-05-1.36521376E-06
 5  9-4.73528704E-06 6.10050080E-06 2.16021749E-06-8.03752023E-07 9.37855689E-08
 5 10 2.97943408E-05-6.02132052E-06-5.01856815E-05 2.94749280E-06 2.98053876E-06
 5 11 7.51264678E-07 5.21826987E-06-2.95526111E-05-4.00983753E-05 1.34484711E-06
 5 12 5.24652406E-06-6.59137117E-06 2.52968823E-06 7.95162571E-07 7.60785324E-08
 5 13-6.65886234E-01-1.44363183E-03 5.53824599E-03-6.43088310E-04-1.24562452E-03
 5 14-2.64872500E-05 1.37809192E-03 1.64876495E-03 4.94299744E-05 6.55918972E-05
 5 15-1.32466950E-04 6.68750531E-05 8.97953455E-05 1.08365779E-06 4.56058292E-07
 5 16 7.47972471E-01 1.58170198E-03-6.03797508E-03 7.41290878E-04-1.38117368E-03
 5 17 8.98618373E-06-1.45758661E-03 1.81730882E-03-2.49072376E-05-4.66056335E-05
 5 18 1.29900868E-04-8.32952347E-05 8.06495004E-05 1.23712804E-06 3.80259860E-06
 5 19 1.40214716E-05 2.67547424E-05-9.95458403E-05 1.89180707E-06 6.21446800E-06
 5 20 1.97116583E-06-2.26433325E-04-9.59572871E-05 1.03452083E-06 5.21417961E-06
 5 21-3.62395558E-06-1.59022403E-06-1.05912326E-05 1.96794005E-06-3.13478105E-06
 5 22-1.70573970E-05-3.24299210E-05 1.21118188E-04-1.76561244E-06 6.33777798E-06
 5 23-1.86024789E-06 2.38824925E-04-9.51579618E-05-1.09063405E-06-5.61132057E-06
 5 24 4.47800731E-06 1.13331326E-06-1.14083706E-05-1.94689654E-06-3.04358202E-06
 5 25 1.29371869E-05 5.66606996E-06 1.56797089E-04 1.08372285E-05-2.04257319E-04
 5 26-1.20792008E-06-1.46564719E-04 4.65670623E-03 3.14411241E-05 6.57390678E-06
 5 27-2.89171785E-05 2.23432717E-05 5.55033229E-04 3.76151671E-06 1.36133235E-05
 5 28-9.10187225E-07-2.06480475E-06-7.40045980E-06-1.91225810E-07-1.84831058E-05
 5 29-2.46787685E-07 3.26643402E-05 2.10199749E-03 1.75854664E-05-3.18396222E-07
 5 30-2.87873621E-07 6.06269843E-07-3.35832497E-05 3.54597925E-08-5.84665338E-06
 5 31 4.85849277E-05 8.43843475E-05-6.42518918E-04-1.68994294E-05-2.13387156E-06
 5 32 1.35735482E-06 2.28235761E-03 8.53587254E-04 4.75088339E-05-4.76994527E-05
 5 33 1.74393470E-05 3.02601057E-05 4.14519191E-05-4.14197228E-07 7.87940865E-07
 5 34-5.99645528E-05-1.03773439E-04 8.66839477E-04 1.67235216E-05-2.51197038E-06
 5 35-1.41405276E-06-2.42782567E-03 8.17573335E-04-3.62819352E-05 5.69102255E-05
 5 36-1.88969131E-05-3.80133124E-05 3.93418211E-05 1.33345716E-06 6.82627233E-07
 5 37-1.30278768E-06-2.87318814E-06-1.14517667E-05 6.17571410E-06-2.62586383E-05
 5 38-1.36331091E-07-6.40133501E-05-3.02944250E-03-2.43849246E-05 9.56658655E-08
 5 39 9.24803271E-06-9.34369858E-06 4.21379712E-04 3.57688842E-06 9.26532012E-06
 5 40-1.23746837E-05 2.01033197E-06 3.89152843E-04-3.33924525E-05 3.55214322E-05
 5 41-2.36383578E-06 2.17489306E-03-6.90230231E-04 4.11467333E-05-5.61038471E-06
 5 42 9.06649025E-05-8.50545178E-05 1.33913642E-05 1.03129630E-06 1.35345485E-06
 5 43 8.36528631E-06-1.10630007E-05-4.88006972E-04 3.81313448E-05 3.90953229E-05
 5 44 3.51296425E-06-2.31000017E-03-7.46778760E-04-5.60533799E-05-5.41273383E-06
 5 45-7.93428632E-05 8.47555970E-05 8.45787718E-06-1.02182635E-06-1.76223477E-06
 5 46-1.83303564E-06-3.36513687E-06-1.20744940E-05 1.35556082E-06-9.20706106E-06
 5 47 3.32903200E-07 5.67694497E-07-1.57501779E-04-2.41108025E-06 4.88906904E-07
 5 48 5.22760022E-07-1.01166693E-06 3.26727406E-05 6.38809303E-07 1.77565410E-05
 5 49 1.41603828E-05 3.59785323E-05-9.13910132E-05-8.93318140E-06-1.47698018E-06
 5 50-2.34470040E-05-4.29168549E-05 9.81093314E-05-1.75725684E-06 1.61875869E-06
 5 51-2.91438099E-08-8.12399456E-07 7.91110986E-07-2.89562932E-06 6.78089087E-07
 5 52-2.03546938E-05 5.84195114E-05 9.58334914E-06 1.27562841E-05 3.78200586E-07
 5 53 2.03298323E-05-5.35617594E-05-9.94479578E-06 1.26804844E-05-2.37658006E-07
 6  1 2.31231547E-04-1.98760444E-05 2.97678900E-05 1.27808887E-05-3.81604338E-06
 6  2 5.14626440E-06-6.84366936E-05 9.10083091E-06-1.46860657E-05 6.51568163E-07
 6  3-7.64146890E-07 1.12578727E-07-6.62406908E-06 4.77063391E-06-2.30669850E-06
 6  4 2.20704932E-04-1.84426285E-05 2.26786571E-05 1.18972297E-05 3.81198587E-06
 6  5 4.72345569E-06-6.47233812E-05-9.18836810E-06-1.07305136E-05 5.49240002E-07
 6  6-2.60228992E-07-2.89011010E-07 6.22887233E-06 4.57069084E-06 2.07203820E-06
 6  7 6.21708050E-05-1.01278992E-05-1.39881213E-05 1.30945921E-06-4.53389211E-06
 6  8-1.52824441E-07 3.39232894E-06 4.10733354E-05-2.23018731E-05 1.80480592E-07
 6  9 4.38817989E-06-4.56866048E-06-3.69271703E-06-3.74224846E-07 2.08785198E-06
 6 10 5.91609059E-05-9.47844052E-06-8.38870759E-06 9.44022362E-07 4.23211210E-06
 6 11-1.68003086E-07 3.15176841E-06-3.75174361E-05-1.84716913E-05-2.31241184E-08
 6 12 3.91226602E-06-3.88914191E-06 3.39394900E-06-3.94871798E-07-1.94508730E-06
 6 13 7.47817904E-01 1.27608544E-03-4.63727077E-03 7.97561183E-04 1.28730570E-03
 6 14 3.02892163E-05-6.50686673E-04-1.63856988E-03-2.77744095E-05 1.69266919E-04
 6 15-2.31658058E-05-1.46101113E-04 6.07190927E-05 9.62049584E-06 3.07764304E-06
 6 16 6.65712681E-01 1.10048804E-03-3.96549920E-03 7.26103625E-04-1.12945524E-03
 6 17 9.97957701E-06-4.97444517E-04 1.43337366E-03-2.70806910E-07 1.76599269E-04
 6 18-3.91513167E-05-1.37447953E-04-6.90200858E-05 8.63630084E-06-1.32824614E-06
 6 19-2.71804974E-05-5.08210010E-05 1.91781581E-04 1.43215959E-06-1.31338317E-06
 6 20-5.18258254E-08 1.13105424E-04 1.33331786E-05 1.29726828E-05-4.93022360E-06
 6 21 8.18114092E-06-3.25091732E-06 7.22688065E-06 1.44807574E-06-2.60178243E-07
 6 22-2.53690308E-05-4.73729267E-05 1.78946136E-04 1.63696664E-06 5.90670924E-07
 6 23 1.91834640E-07 8.63715168E-05-1.76853374E-06 1.28651398E-05-4.21843953E-06
 6 24 7.60905400E-06-3.39061446E-06-6.07240606E-06 1.56312262E-06 8.27079057E-07
 6 25 2.22669397E-04 9.75336703E-05 2.69778980E-03 1.73389689E-04 1.24267155E-05
 6 26 5.76586978E-06-2.22724584E-03-2.77743286E-04-6.57413895E-05 1.74328144E-04
 6 27-5.55586206E-04 3.81258062E-04-2.90529747E-05-6.64757521E-06-8.99494757E-06
 6 28-1.57652028E-05-3.57142538E-05-1.25883981E-04-4.47645135E-06 1.07815752E-06
 6 29-1.94809091E-06 6.92765001E-04-1.19059741E-04 2.43849582E-05-9.05251174E-06
 6 30-2.66854329E-06 1.17210550E-05 1.87116359E-06 4.72743836E-06 2.27676044E-07
 6 31-1.01043016E-04-1.72276459E-04 1.97016055E-03-7.46643435E-07 4.68256221E-06
 6 32-1.57900613E-07-1.33320450E-03 1.11696026E-04-1.65128207E-05 8.66889311E-05
 6 33-1.78875967E-05-6.88013344E-05 2.14236167E-05 2.90500639E-06 3.92058943E-06
 6 34-9.47408594E-05-1.61354999E-04 1.88251193E-03-2.63244576E-06-4.42942177E-06
 6 35-6.69177630E-08-1.05963631E-03-2.16586187E-04-1.41456558E-05 8.09050561E-05
 6 36-1.59823174E-05-6.49227387E-05-2.52807387E-05 2.44862176E-06-3.08198282E-06
 6 37-2.26170933E-05-4.98463190E-05-2.06076488E-04 1.05215836E-04 1.92631113E-06
 6 38 5.59657504E-07-1.29834613E-03 1.70283135E-04-1.89946432E-05 4.73860301E-05
 6 39 1.15678559E-04-1.63064589E-04-2.47566136E-05 6.97260811E-06 1.91921064E-06
 6 40-3.44194610E-05-7.91781158E-05-8.68025183E-04 4.55146760E-05-3.10786096E-05
 6 41 4.77502319E-06-1.33905269E-03 3.90789819E-04-3.21962303E-05-9.40234748E-05
 6 42 9.19705028E-05 2.05297205E-06 4.76450504E-05-1.17855024E-06 1.55010361E-06
 6 43-3.56567121E-05-7.84777972E-05-8.16602888E-04 4.11474480E-05 2.70009801E-05
 6 44 4.92065827E-06-1.07723191E-03-3.16532141E-04-3.21028561E-05-9.33567127E-05
 6 45 1.01195400E-04-7.83868696E-06-5.05001210E-05-1.82603198E-06 2.08608498E-07
 6 46-3.16599599E-05-5.81309515E-05-2.06575458E-04 2.27637332E-05 5.62661449E-07
 6 47 6.98440960E-06-1.04139042E-06 9.25115069E-06-2.11867984E-05 1.20940044E-05
 6 48 9.53076529E-06-2.16247697E-05-1.93632213E-06 7.86789983E-06-7.19521702E-07
 6 49-8.15492847E-05-6.17444892E-05 6.30676535E-05-5.56541179E-05 1.56289485E-06
 6 50-7.93646112E-05-5.71342683E-05 5.17082615E-05 5.66929275E-05 2.26516640E-06
 6 51-4.29057959E-07-1.43088609E-05 1.33325987E-05 1.23594254E-07 1.20778968E-05
 6 52 9.48185107E-07 3.90444286E-05-2.94958374E-06-6.46699636E-07-5.02145528E-07
 6 53-1.40843832E-06 4.55625187E-05-1.83762146E-06-8.35878712E-07-4.70267089E-07
 7  1-1.61688848E-04 1.53857781E-04 9.13479774E-05 2.99498297E-05 5.51365418E-05
 7  2-7.94783518E-06-1.21263626E-04 1.82076800E-06-1.08097952E-06 2.41303321E-05
 7  3-9.74714119E-05 7.33410798E-05-6.88678533E-05 1.26823507E-04 1.09448709E-04
 7  4 5.93583919E-06-2.81556152E-05 7.74655119E-05-5.10747624E-06 4.42147064E-06
 7  5 1.09584715E-06 6.16886677E-05 1.58281203E-05-3.90858930E-05 5.04691272E-07
 7  6 1.95100173E-06-2.45569300E-06-7.53864154E-06-1.76756741E-05 1.01563541E-05
 7  7-1.46435965E-04 1.81249334E-04-5.09092281E-05-5.15759588E-05 1.47670277E-05
 7  8 1.32625582E-05 1.01935115E-04 7.04988203E-05-5.36002927E-05-9.58062159E-05
 7  9 3.55348056E-05 6.02714103E-05 4.34676283E-05 1.83901522E-04 2.00620330E-05
 7 10 2.78204313E-06-3.41695169E-05 2.31614857E-05 1.55458668E-05 1.17219377E-06
 7 11 2.13645029E-06-4.17512122E-05 3.82905369E-05-1.39877401E-05 8.13202326E-06
 7 12 2.45094193E-06-1.05829652E-05 2.18986106E-06-1.88081031E-05 7.92711338E-06
 7 13-1.67563903E-05-3.63217533E-05 2.57728466E-05-1.36355947E-05-2.87854754E-06
 7 14-1.04850263E-06 2.42888410E-05-1.21126174E-05 4.61512280E-06 7.48107033E-06
 7 15-4.75974917E-07-7.00509542E-06-4.91790201E-06 6.64481841E-07 5.44515694E-07
 7 16-1.40025507E-06-6.25716058E-06 2.30633899E-05 1.74036078E-06 4.21899118E-06
 7 17-4.70811874E-08-3.84206271E-05-2.29177004E-05 1.30109975E-06-3.25644953E-06
 7 18 5.08471364E-06-1.82826411E-06 2.37470316E-06-5.56682580E-09-3.47616312E-07
 7 19 9.98021111E-01 2.78642297E-03-9.78681738E-03 1.01760971E-04-2.17214571E-04
 7 20-1.76288538E-05 1.33297703E-03-2.59213953E-03-1.28592674E-04 1.91140684E-04
 7 21-1.20469907E-04-7.06707769E-05 2.26765131E-04-4.41788329E-04-2.09596946E-04
 7 22-8.57546275E-02-3.18487704E-04 1.09534607E-03-1.25498120E-05-3.67533212E-06
 7 23-1.23411419E-06-1.01335811E-04-5.66799125E-04 1.20254122E-05-1.84923698E-05
 7 24 2.67141744E-05-8.22180461E-06 3.33049820E-05 3.37970660E-05-2.01212011E-05
 7 25-7.68080168E-03-1.29835143E-04 5.91473098E-04-3.98037238E-06 1.12673799E-05
 7 26 1.80667680E-06 2.90781527E-04-9.62169166E-05-6.63693098E-06 1.99466650E-05
 7 27-1.10572998E-05-8.88936512E-06 5.63684586E-06-6.50211159E-07 3.84210075E-07
 7 28-1.26081344E-04-2.17902399E-04 3.60582954E-03 4.79175695E-05-3.42206569E-05