 $SYSTEM MWORDS=10000 MEMDDI=1565 $END
 $CONTRL MAXIT=200 SCFTYP=RHF RUNTYP=ENERGY ISPHER=1 UNITS=ANGS
  EXETYP=RUN COORD=UNIQUE ICHARG=0                   $END
 $BASIS gbasis=CCD                                   $END
 $SCF DIRSCF=.TRUE.                                  $END
 $SCF DIIS=.TRUE.                                    $END
 $SCF SOSCF=.FALSE.                                  $END
 $STATPT NSTEP=1000                                  $END
 $GUESS GUESS=MOREAD                                 $END
 $ELMOM IEMOM=0                                      $END
 $DATA
 EDTA HF/CCD local minima geometry
C1
O     8.0     3.95539713    -3.17510629    -0.46294522
O     8.0     3.21463394     2.89082789     1.11594427
O     8.0    -3.92594647    -3.21548986     0.43007764
O     8.0    -3.23979211     2.87303805    -1.08485425
O     8.0     4.26844692    -1.04495943    -0.94924796
O     8.0     1.77272916     2.31648326    -0.45422894
O     8.0    -4.25776196    -1.09362483     0.93950069
O     8.0    -1.79263806     2.29548788     0.47927469
N     7.0     1.84310770    -0.35842958     0.35898888
N     7.0    -1.83897400    -0.37136969    -0.36166421
C     6.0     0.41207516    -0.29634592     0.64124441
C     6.0    -0.40858641    -0.29323125    -0.64320493
C     6.0     2.37783408    -1.69070172     0.41033566
C     6.0     2.63370180     0.63029134     1.04314983
C     6.0    -2.36159039    -1.70783532    -0.42699769
C     6.0    -2.63857007     0.61720210    -1.03553760
C     6.0     3.62835383    -1.88576102    -0.41572919
C     6.0     2.46274757     2.01170588     0.45742476
C     6.0    -3.61033130    -1.92289877     0.39682338
C     6.0    -2.47995830     1.99393928    -0.43550891
H     1.0     0.10253919    -1.12315214     1.29351032
H     1.0     0.17586364     0.61884320     1.17725253
H     1.0    -0.18075870     0.62965173    -1.16951621
H     1.0    -0.09155943    -1.11037540    -1.30402815
H     1.0     1.64442170    -2.39181662     0.01395957
H     1.0     2.61006308    -2.04447603     1.42713857
H     1.0     3.69118333     0.39852750     0.94488931
H     1.0     2.41992497     0.70119482     2.11874962
H     1.0    -1.62185919    -2.40636373    -0.03780425
H     1.0    -2.59048057    -2.05315399    -1.44744575
H     1.0    -3.69392085     0.37487206    -0.93967682
H     1.0    -2.42556596     0.70114279    -2.11035085
H     1.0     4.75276232    -3.25752997    -0.97468311
H     1.0     3.08199906     3.74398255     0.71808702
H     1.0    -4.72253609    -3.31040263     0.94087678
H     1.0    -3.11475372     3.72313356    -0.67810369
 $END
--- CLOSED SHELL ORBITALS --- GENERATED AT Wed Jun 24 03:15:01 2015
 EDTA HF/CCD local minima geometry
E(RHF)=    -1095.9445092904, E(NUC)= 1657.4597762906,   12 ITERS
 $VEC
 1  1-1.83895146E-03-6.50212845E-06 2.29551560E-05-1.17703740E-06-2.00337683E-06
 1  2 6.61350021E-07-4.71159840E-06 9.31278329E-06 2.69752547E-06-2.37769321E-07
 1  3 5.86168908E-07-3.48399587E-07-4.89289676E-07-7.87215425E-08 5.59125270E-09
 1  4-2.77707097E-06-2.28819841E-06 1.11710478E-05-5.39642924E-07 5.79672768E-08
 1  5-3.08456485E-07-2.93051270E-07-4.98070479E-06 1.03619631E-07-3.27409189E-08
 1  6 2.72015877E-07-2.39274958E-07 4.04348687E-07-2.49893968E-08 1.17702738E-07
 1  7 1.00137290E+00 2.12071400E-03-6.15951846E-03-7.72678069E-04 1.17318532E-03
 1  8 6.65438440E-04-1.18696326E-04-1.90655841E-03-1.85247397E-04 1.07536238E-04
 1  9-1.48045688E-04 4.05094496E-05-1.79746985E-05-9.15650713E-05-1.05756651E-05
 1 10 1.52596019E-05 9.67662716E-06-5.14720037E-05 8.27688119E-07 3.12998671E-07
 1 11 8.05574670E-07-1.17973890E-05-1.40135835E-05-8.96743891E-06-5.25548331E-07
 1 12 2.00154122E-09 5.23546790E-07-5.97673285E-07-1.29289747E-08-1.14351960E-06
 1 13 2.83955328E-07-5.09445221E-07 6.50256017E-06 4.33603941E-07-6.58551864E-07
 1 14 7.73487759E-08-5.76042763E-06-7.99742068E-07 2.62728050E-06 5.29602298E-08
 1 15-3.84892023E-08-1.44710275E-08 4.10604837E-07-1.29234007E-08-2.21827477E-07
 1 16 1.18356630E-06 1.68713182E-06-1.37622774E-05 1.50159286E-06 1.77674810E-06
 1 17 9.86003488E-07-8.05630957E-06-7.00205399E-06-7.16877029E-06-2.85759747E-09
 1 18 6.78625192E-07-6.75767594E-07 4.39241927E-07-2.74476747E-07-2.27353910E-07
 1 19-4.54261259E-04-1.80191447E-04 3.41489173E-04-3.81539383E-05 5.36323297E-05
 1 20 2.57401510E-05 3.86271490E-04 4.46632031E-04-1.75512774E-04 7.99125351E-05
 1 21-9.93423406E-05 1.94298055E-05 1.91152541E-05-6.94308183E-05-2.46531902E-05
 1 22-6.89341073E-06-1.03784484E-05 7.32295371E-05 4.08320265E-06-6.24068610E-08
 1 23-4.58761352E-06-2.15261441E-05-2.21885735E-05-1.04177188E-06-1.36220552E-06
 1 24-6.13235983E-07 1.97544150E-06 2.24779251E-06-1.65512744E-06 7.30682301E-07
 1 25-4.14072008E-06-7.85258191E-06 7.31933071E-06 6.43830241E-06-1.71427266E-06
 1 26 5.71909057E-06-7.12902658E-05 3.05708751E-05-3.66009682E-05 3.98891387E-06
 1 27-2.40206552E-06-1.58684835E-06 2.47187290E-07 2.83348152E-06 1.33259575E-06
 1 28-2.41676204E-06-1.28304022E-05-4.75771076E-04 7.75206832E-05 2.90983115E-05
 1 29-4.62570113E-05-5.25193132E-04-2.67899131E-04 2.88164349E-04-2.58483248E-05
 1 30 2.83637340E-05-2.51540915E-06 3.44204913E-07-3.42364102E-06 1.39722586E-05
 1 31 2.05666920E-05 3.46478973E-05-2.75095844E-04-4.69228741E-06 4.05594388E-06
 1 32 7.27262466E-06 1.01935226E-04-7.60001821E-05 8.12415404E-05 1.96651686E-06
 1 33 7.48234588E-06-9.44886274E-06 2.92234509E-06-5.75744263E-06 2.42561935E-06
 1 34-1.29273057E-05-1.43822025E-05 6.11292317E-04-5.67816038E-05-8.55082984E-06
 1 35 1.23124504E-05-2.66597570E-04 1.71035552E-04 1.42759990E-04 5.93080549E-05
 1 36-3.73852292E-05-2.19228257E-05-2.49868626E-05 7.39541964E-06 6.36362985E-06
 1 37-1.73535393E-06-2.71979281E-06 5.55723342E-05 9.14942893E-07 2.17514475E-06
 1 38 5.41402253E-07 5.68438137E-05 4.25652134E-05-1.76569942E-05-3.09494870E-06
 1 39 6.17817453E-06-3.08322583E-06-3.93334386E-07-3.56010235E-06 4.31849863E-06
 1 40-3.54335857E-07-5.02824352E-07 3.91687751E-05-4.38399242E-07-4.71481384E-06
 1 41-1.99329056E-07 6.54547004E-06 1.55190528E-05 2.86805811E-06-4.17004404E-06
 1 42 5.69871897E-06-1.52867493E-06-2.49319711E-07-3.04387973E-06 1.45521400E-07
 1 43-7.63531724E-05-1.64166119E-04 5.57558504E-05 9.49092884E-05 4.28464429E-06
 1 44-6.63627231E-05 1.65580810E-04 3.60754416E-04-6.89367069E-05-4.88645346E-05
 1 45 5.56234882E-05-6.75895366E-06-1.17796388E-04 4.51409881E-05 7.64630783E-05
 1 46-2.95387639E-05-5.29635813E-05 2.19682681E-04 6.87823585E-06 2.80109310E-05
 1 47-1.51698476E-05 5.57430593E-05-9.49414926E-05 2.31102580E-04 8.88377824E-05
 1 48-2.87375349E-05-6.01002475E-05-3.13049450E-05 1.73848949E-05 1.18356922E-05
 1 49 4.61817111E-06 8.00505435E-06-8.57040017E-05-1.81444723E-06 1.79231029E-07
 1 50-6.87869309E-07 3.21475767E-05-3.77907986E-06-1.85538247E-05-5.00473715E-07
 1 51-1.11109433E-06 1.61156805E-06 6.74011766E-07 2.99727302E-06 2.97063145E-08
 1 52 1.42047750E-06 2.00225861E-06-1.60485097E-05-5.89330832E-08 2.11701506E-06
 1 53-2.21862199E-06-1.68503208E-05 1.46890336E-05-1.92523172E-05 1.05193898E-06
 1 54-9.75519885E-07-7.64190901E-08-1.03056651E-06-1.09564598E-06-1.53442199E-06
 1 55 1.01886027E-04 1.68070733E-04 2.55250352E-03-6.93118352E-05-2.34519228E-04
 1 56 6.50535998E-06-6.59588566E-04-2.70612335E-03 7.75883636E-05 1.58340086E-04
 1 57-1.83891637E-04 2.55515517E-05-3.09443649E-05-1.86746241E-04 3.65586983E-06
 1 58 1.79785170E-05 3.39919549E-05-1.59298374E-04 2.07430144E-08-1.21632148E-05
 1 59-5.19030956E-06-3.37454102E-05 1.41048320E-04-8.77183801E-05-4.44433708E-06
 1 60-4.44625497E-06 8.89059204E-06-1.20399721E-05-8.20134231E-06 6.62561810E-06
 1 61 3.54890039E-06 6.46612945E-06-3.55517811E-06 3.91942146E-06 1.68467459E-07
 1 62 2.43272112E-05 3.53568097E-05 1.41463983E-06-1.54247191E-06 2.78251545E-06
 1 63-3.27448644E-05-7.33124557E-05 1.22553321E-05-1.55139681E-05-1.78243193E-06
 1 64-9.15777619E-06 9.38658832E-05 7.86602073E-06 1.72185980E-06 5.11576619E-06
 1 65-2.65211458E-06 5.13534241E-05 5.76758163E-07 3.57906807E-06 3.98027057E-06
 1 66 3.99168641E-06-3.92049527E-06-2.68948787E-06-2.50671374E-06-1.74220638E-06
 1 67-4.84728800E-07-3.04238438E-06-1.68842720E-06 4.98926029E-07-5.50283249E-07
 1 68-8.11021852E-07-1.51347359E-05 1.47159686E-06-1.92783154E-07 1.78633155E-06
 1 69-5.58780242E-05-1.25457469E-04 6.78193021E-05-1.36575361E-05-1.15258263E-05
 1 70-2.31347163E-05-1.37019948E-04 3.30763309E-05 9.52898886E-06-5.26105321E-05
 1 71-5.75503064E-05 1.07451070E-04-3.55822271E-05-5.76610013E-05 1.78005104E-05
 1 72 5.87376024E-05 5.67878378E-05-1.13331025E-05 1.39093357E-05 2.14132555E-05
 1 73-6.18973371E-07-2.09531515E-06-9.05588164E-07-1.97126416E-06 4.88429834E-07
 1 74-4.82287100E-07-1.73079034E-07 4.58320916E-07 4.68490462E-07 3.88245044E-07
 1 75 6.31688785E-05-1.81938112E-04-5.34253302E-04 2.55035334E-05 3.55744880E-04
 1 76 1.06994346E-05-1.59396913E-05-5.04077079E-06-1.63807269E-06-4.06876862E-06
 2  1 1.00137288E+00 2.12066000E-03-6.15934734E-03 7.62324406E-04 1.18694566E-03
 2  2-6.52706971E-04 1.35557731E-04-1.90730551E-03 1.64619559E-04 1.07265716E-04
 2  3-1.47948403E-04 4.06826870E-05 2.15502204E-05-9.14489668E-05 7.43557092E-06
 2  4 1.52407409E-05 9.65723253E-06-5.13861130E-05-8.32193507E-07 3.15527137E-07
 2  5-8.06143889E-07 1.19068218E-05-1.40504319E-05 8.82574944E-06-5.34980953E-07
 2  6-6.62776988E-09 5.41608723E-07 5.96136601E-07-1.62307903E-08 1.13886304E-06
 2  7 1.83604552E-03 1.28191146E-06 3.40226331E-07-1.64211228E-06 2.31987325E-06
 2  8 1.75848863E-06 4.19897851E-06 2.38012143E-06-3.27577777E-06 1.49426772E-07
 2  9 4.99417962E-08-1.99368568E-07 4.15611949E-07-4.08971886E-07-3.36348633E-08
 2 10-2.72618277E-06-2.25469144E-06 1.09918540E-05 5.42169570E-07 6.07981004E-08
 2 11 3.11539700E-07 2.95704514E-07-5.02757730E-06-1.84836630E-07-2.83607332E-08
 2 12 2.67885577E-07-2.39524844E-07-4.09625910E-07-2.82705630E-08-1.16002899E-07
 2 13-4.54316287E-04-1.80169804E-04 3.41517725E-04 3.76762503E-05 5.42428735E-05
 2 14-2.51387935E-05-3.90252330E-04 4.41252489E-04 1.80271994E-04 8.02012730E-05
 2 15-1.00062609E-04 1.98613364E-05-1.65153050E-05-6.98188709E-05 2.25328329E-05
 2 16-6.88674288E-06-1.03688133E-05 7.31740974E-05-4.07482514E-06-1.40579269E-07
 2 17 4.59021621E-06 2.16885110E-05-2.20290972E-05 7.89673351E-07-1.32705966E-06
 2 18-6.32645761E-07 1.95970542E-06-2.23612561E-06-1.67350579E-06-7.78162799E-07
 2 19-1.38376191E-06-1.17134820E-06 7.75728330E-06-5.67321411E-07-4.64753790E-07
 2 20 1.00100139E-08 7.18371114E-06 9.18789526E-07-3.27941803E-06 3.52280273E-07
 2 21-4.13381339E-07 6.11010658E-08-3.39536921E-07-2.74284050E-07 1.30762502E-07
 2 22 1.15825319E-06 1.64916033E-06-1.35018500E-05-1.50258047E-06 1.77349272E-06
 2 23-9.83926210E-07 8.04027466E-06-7.08267406E-06 7.09246315E-06-1.29747430E-09
 2 24 6.65445282E-07-6.64147808E-07-4.35615450E-07-2.86849207E-07 2.44104619E-07
 2 25-2.42366615E-06-1.28431495E-05-4.75779883E-04-7.77455135E-05 2.79001320E-05
 2 26 4.65868502E-05 5.27260746E-04-2.60108128E-04-2.91224203E-04-2.58262147E-05
 2 27 2.86004332E-05-2.77421856E-06-8.85150630E-07-3.31383548E-06-1.36007899E-05
 2 28-4.14707511E-06-7.89452249E-06 5.57784524E-06-6.13525411E-06-1.60897356E-06
 2 29-5.90691143E-06 6.90629507E-05 2.98911121E-05 3.79819678E-05 3.89879873E-06
 2 30-2.27802451E-06-1.62077422E-06-2.10251325E-07 2.83161515E-06-1.26775802E-06
 2 31-1.28711991E-05-1.42897547E-05 6.10419353E-04 5.68339162E-05-7.87696330E-06
 2 32-1.23628484E-05 2.65348853E-04 1.74629950E-04-1.40703060E-04 5.89100299E-05
 2 33-3.68368592E-05-2.20731708E-05 2.59420769E-05 7.71812373E-06-6.48186650E-06
 2 34 2.05214185E-05 3.45982361E-05-2.72887510E-04 4.44174822E-06 4.13988018E-06
 2 35-7.19067406E-06-1.02264048E-04-7.54536834E-05-8.16290803E-05 2.22234089E-06
 2 36 7.35137398E-06-9.57371487E-06-3.01314076E-06-5.75307115E-06-2.23155179E-06
 2 37-7.63451002E-05-1.64150074E-04 5.57833774E-05-9.49448856E-05 2.73119888E-06
 2 38 6.63867216E-05-1.68255718E-04 3.58702207E-04 7.31600570E-05-5.06355902E-05
 2 39 5.88622118E-05-8.22662156E-06 1.16211552E-04 4.70598155E-05-7.52067574E-05
 2 40-2.95260652E-05-5.29391997E-05 2.19851370E-04-7.14029090E-06 2.77605184E-05
 2 41 1.54548197E-05-5.50599015E-05-9.29880329E-05-2.32131946E-04 8.83162808E-05
 2 42-2.80046579E-05-6.03116229E-05 3.23738022E-05 1.78117502E-05-1.12846299E-05
 2 43-2.01796873E-06-3.32609846E-06 5.58131984E-05-5.86219478E-07 2.19151792E-06
 2 44-7.61736043E-07-5.65530920E-05 4.31763339E-05 1.78407323E-05-3.27773310E-06
 2 45 6.46686751E-06-3.18913441E-06-1.00728899E-07-3.34683892E-06-3.95866040E-06
 2 46-4.56963194E-07-6.87348923E-07 3.99031711E-05 5.07173937E-07-4.60898454E-06
 2 47 9.28914676E-08-6.52764987E-06 1.51345159E-05-1.87896891E-06-3.84545373E-06
 2 48 5.59948779E-06-1.75403406E-06 6.49533457E-08-2.97824157E-06-4.12671693E-08
 2 49 1.01878307E-04 1.68076225E-04 2.55212286E-03 7.13696957E-05-2.33841050E-04
 2 50-9.05870521E-06 6.83620410E-04-2.69925358E-03-1.06887105E-04 1.57840877E-04
 2 51-1.83209271E-04 2.53683942E-05 3.64255583E-05-1.86290761E-04-7.91594752E-06
 2 52 1.79904122E-05 3.40106478E-05-1.59458893E-04 8.88432098E-08-1.22120200E-05
 2 53 5.05500860E-06 3.24031258E-05 1.40506164E-04 8.90738568E-05-4.62784045E-06
 2 54-4.14085519E-06 8.76869563E-06 1.21140889E-05-8.02752668E-06-6.86809832E-06
 2 55 4.98952236E-06 8.61754744E-06-7.62899465E-05 1.55865589E-06-6.72679228E-07
 2 56 7.13069146E-07-3.45210960E-05-1.41961221E-05 1.87793646E-05 9.06991997E-08
 2 57-1.79423617E-06 1.70353697E-06-8.11436915E-07 2.30280048E-06-2.63214192E-08
 2 58 1.48288182E-06 2.12051551E-06-1.65936318E-05 3.90382139E-08 2.04923895E-06
 2 59 2.22078475E-06 1.66148278E-05 1.51279308E-05 1.90822675E-05 1.01804748E-06
 2 60-1.00214260E-06-1.59048766E-08 1.01720963E-06-1.12891910E-06 1.54083065E-06
 2 61-9.16977865E-06 9.38789377E-05-7.89501588E-06 1.71465735E-06-5.08839699E-06
 2 62-3.26418147E-05-7.31775241E-05-1.21129639E-05-1.56547721E-05 1.62343401E-06
 2 63 2.42112017E-05 3.50918804E-05-1.35318475E-06-1.58027878E-06-2.79783786E-06
 2 64 3.51086919E-06 6.69791974E-06 3.55885361E-06 3.94085711E-06-1.18446705E-07
 2 65-5.58572724E-05-1.24959617E-04-6.76788177E-05-1.43781616E-05 1.13804353E-05
 2 66-2.31236945E-05-1.37304887E-04-3.31792108E-05 8.66354997E-06 5.26866163E-05
 2 67-5.75552336E-05 1.07655588E-04 3.60699586E-05-5.71372750E-05-1.83794433E-05
 2 68 5.87386888E-05 5.67386087E-05 1.12284262E-05 1.42290794E-05-2.12599887E-05
 2 69-2.86539731E-06 5.08416196E-05-3.56583230E-07 3.56066061E-06-3.98252658E-06
 2 70 3.90422544E-06-4.41199042E-06 2.82975344E-06-2.46359681E-06 1.52388945E-06
 2 71-6.99294323E-07-2.65780847E-06 1.55318376E-06 2.94770353E-07 6.22815173E-07
 2 72-5.86125598E-07-1.49340309E-05-1.51017311E-06-1.35322457E-07-1.70857949E-06
 2 73 6.30738759E-05-1.81925962E-04 5.34043349E-04 3.40315669E-05-3.55445822E-04
 2 74 1.07044453E-05-1.59349290E-05 5.05947310E-06-1.63316497E-06 4.05489451E-06
 2 75-3.83836976E-07-2.76092330E-06-1.03699228E-06-1.86287977E-06 7.94690893E-07
 2 76-4.44300099E-07-2.27201181E-07-4.80435321E-07 4.62194485E-07-3.97241900E-07
 3  1 2.11223678E-07-2.48657516E-06 1.34469206E-05 2.89778284E-07 2.81020823E-07
 3  2 1.05233840E-07-2.14091022E-06 4.17540977E-06-8.80398478E-07 2.48801657E-08
 3  3 8.46303015E-08-1.09510467E-07-2.34153712E-07-1.85998778E-07-5.16859195E-08
 3  4-1.09457895E-02-2.78889209E-05 8.92574578E-05 9.95762688E-06-2.78844744E-06
 3  5 1.24776741E-05-1.55973351E-05-1.69433618E-05-1.23274950E-05 6.12135009E-07
 3  6-6.21910684E-07 9.77567495E-09 1.21516837E-06 3.06620266E-07 1.66304366E-06
 3  7-3.39251563E-06 1.13685238E-05-7.66267193E-05-3.38955079E-06 1.95868507E-06
 3  8 6.05642164E-07 4.51045726E-05-2.42730459E-05-2.20211642E-05-4.38534712E-07
 3  9-9.52044173E-07 1.39057889E-06 2.33340458E-06 1.66389788E-06-9.28802865E-07
 3 10 1.00131550E+00 2.12210649E-03-6.15951804E-03 9.34751539E-04 2.80769598E-04
 3 11 1.21215971E-03-1.19982568E-03 9.37808806E-04-1.16513492E-03-5.61089178E-05
 3 12 7.20435511E-05-1.59346333E-05 8.58843162E-05-3.84851849E-05 1.32362954E-04
 3 13 9.71964965E-08 1.26209210E-07-1.92793897E-07 5.89487243E-07-2.43944410E-07
 3 14-4.31065693E-08-4.48802720E-06-4.28747903E-08 1.41251146E-06 1.29462959E-07
 3 15-1.17253795E-07-1.22091638E-08 2.54081684E-07-2.58564531E-07-1.08782260E-07
 3 16 8.94631554E-06 7.77109369E-06-4.05035882E-05 4.12859896E-06 8.06639671E-07
 3 17 9.10048338E-08-1.67196832E-05 6.58354368E-06-7.49491942E-06-1.95418809E-07
 3 18-5.43620515E-08 2.49780861E-07 1.25487811E-06-1.07253057E-06 8.65227270E-07
 3 19 1.22097022E-06-2.14990252E-07 2.34869923E-05-3.73643589E-07-1.00173674E-05
 3 20-2.48023750E-06 2.07206666E-05 3.58900691E-05-2.52781131E-06-4.64919828E-07
 3 21-9.49211642E-07 1.41413147E-06-1.18356245E-06 1.35394196E-06-8.93258204E-07
 3 22-4.48159357E-04-1.77283167E-04 3.26148047E-04 4.68718553E-05 1.42233188E-05
 3 23 5.11534540E-05 1.94609320E-04-5.81885399E-04 8.37011505E-05-5.22209734E-05
 3 24 8.25078375E-05-3.02868641E-05 4.42012976E-05-3.58563018E-05 8.42749286E-05
 3 25-3.39855336E-06-5.52545718E-06 3.71328019E-05 1.20698216E-06 1.08254347E-06
 3 26 1.68554967E-07-3.38175924E-05 1.65343169E-05 2.21704293E-06 3.00801890E-06
 3 27-3.06704255E-07-2.70131464E-06-1.58872814E-06-1.07408592E-06 5.50560580E-07
 3 28-1.06667556E-05-2.80241298E-05-4.17508195E-04 6.21670845E-06-9.26911412E-05
 3 29-2.53009607E-05-4.64790289E-05 6.29385282E-04 1.01739408E-04-1.86044057E-07
 3 30-1.49135280E-05 1.50995720E-05-1.87055459E-05 1.61943205E-05-3.51802637E-06
 3 31 2.74821075E-05 4.61232847E-05-3.71573233E-04 1.95448727E-07 5.81979818E-06
 3 32 7.29517588E-06 1.29766192E-04-1.34275919E-04 8.58862198E-05-7.41480315E-06
 3 33 5.83285165E-06 1.58195150E-06 1.12841033E-05-9.35297365E-06 2.30491944E-05
 3 34-5.86409169E-05-1.04844080E-04 4.69765882E-04 1.57298238E-05-3.11372133E-05
 3 35-1.24490880E-05-7.74361456E-05 2.49721750E-04 1.89538982E-04 1.35726263E-06
 3 36 1.44207144E-05-1.57779770E-05 7.65372900E-05 9.06602673E-06-3.93328010E-05
 3 37-1.64128109E-06-3.17124198E-06 3.26057109E-05 5.86638904E-07-5.49543321E-07
 3 38 9.85179298E-07 4.00874607E-05 8.23922019E-07-3.53762052E-05-9.78139350E-07
 3 39 2.70191467E-06-1.72377532E-06 3.80009326E-06 3.35056696E-07 1.72920688E-06
 3 40-3.87036946E-07-3.26305778E-07 2.10127122E-05-1.40786130E-07-9.72406141E-07
 3 41-3.85651203E-07 2.84060726E-05 2.50722282E-05 1.80547868E-05-9.65142150E-07
 3 42 2.81557264E-06-1.85043049E-06-2.16669258E-06-2.47067662E-06 1.32752574E-07
 3 43 2.00560364E-06 1.17967150E-05 5.24990903E-04 1.62077930E-05 5.63633760E-05
 3 44-1.48305270E-07 2.11129819E-04 2.26709123E-04 6.45235474E-05 6.99155891E-06
 3 45 9.59813695E-06-1.65896959E-05 6.31067263E-05-5.89322795E-06 2.62185931E-06
 3 46-7.03022965E-05-1.54125382E-04-9.56407863E-06-1.21602348E-05-9.72003155E-05
 3 47-6.03782684E-05 8.59204693E-05-3.96003058E-04 2.27191583E-04 6.20370185E-05
 3 48-1.41636448E-04 7.95994299E-05 2.75753425E-05 6.24044088E-05-2.16374383E-05
 3 49 2.81007286E-06 4.83448211E-06-5.99394771E-05-7.19732600E-07-5.15066649E-07
 3 50-3.39978927E-07 2.63626523E-05 5.35236675E-06-1.21526214E-05-4.74562843E-07
 3 51-1.14412375E-06 1.61868659E-06 7.04729732E-07 9.55854123E-07 7.10979498E-08
 3 52 1.45563484E-06 2.72479363E-06-2.79760527E-05-2.40668674E-06-1.33928398E-07
 3 53-5.23757281E-06-4.50953490E-05-1.68322898E-05-5.21526821E-05-1.09610915E-06
 3 54-2.13985939E-06 3.23596854E-06 3.90932976E-07 5.73419391E-07-1.23609341E-06
 3 55 9.12539456E-06 1.51900753E-05-2.10420291E-05-8.68873487E-07 2.93115170E-06
 3 56 5.02024502E-06-1.15175172E-04-1.21490791E-04 5.17659572E-06-9.10706529E-06
 3 57 3.67302629E-06 5.43403900E-06 1.06664245E-05 9.34861158E-06-7.61858629E-06
 3 58 1.00656067E-04 1.66476882E-04 2.60723634E-03-1.28378634E-04 1.68127819E-04
 3 59-1.20118593E-04-1.57767198E-03 1.82998801E-03-1.36484909E-03-1.07693478E-04
 3 60 1.24167998E-04-1.64745199E-05 1.15858753E-04 4.19916774E-06 2.19486062E-04
 3 61 1.82751461E-05-2.40202017E-05-3.50493274E-06 1.01432822E-05-1.35107019E-06
 3 62 2.68635250E-05 1.09976281E-04-5.10529538E-06 1.11589076E-06-5.44417113E-06
 3 63-8.62384733E-05-7.64739831E-05-1.17043655E-05 4.42735692E-05-2.58213829E-05
 3 64 5.59437696E-05 8.55275558E-05 5.62563414E-06 1.99127159E-05 1.50041003E-05
 3 65-4.53612713E-06 6.97967758E-06-2.58927836E-06-5.32429968E-07 2.06884559E-06
 3 66 4.64215187E-06 8.31184482E-06-2.28504887E-06 7.02291184E-07-3.39653052E-07
 3 67-3.98691216E-06-6.19441155E-06-5.65688583E-07-1.73795471E-07-1.82234668E-06
 3 68 1.14996112E-06-2.39339481E-05 6.90852674E-07 1.12540478E-06 1.98126431E-06
 3 69-2.07186372E-05-5.82266441E-05-1.56446903E-05-6.32171036E-08-5.38097739E-06
 3 70-1.84077506E-05 2.47903912E-05-1.33399747E-05-1.07528617E-05 2.72220235E-06
 3 71-6.35634122E-05-1.83798491E-04-3.59365463E-05-5.88406654E-05-1.64347964E-05
 3 72-1.00425197E-05-3.56065211E-05 1.71095957E-05-4.15634618E-05-3.91539940E-05
 3 73-2.02530580E-06-1.22717148E-06 6.84291200E-07-1.09747574E-06-1.87631983E-07
 3 74-1.51013706E-06 3.10698568E-06 2.20861981E-06-5.09976341E-06 3.65544492E-06
 3 75 2.55326831E-05-1.66601514E-05 7.48480649E-06-4.73424691E-06-5.27654678E-06
 3 76 6.40821497E-05-1.81137067E-04 1.40095215E-04 5.33854742E-04 3.31210655E-04
 4  1-3.39200744E-06 1.13063481E-05-7.62889875E-05 3.37864003E-06 2.00271949E-06
 4  2-5.82884889E-07-4.49369609E-05-2.48068669E-05 2.17383674E-05-4.02542282E-07
 4  3-1.00326717E-06 1.40580946E-06-2.35101115E-06 1.62569103E-06 9.12948172E-07
 4  4 1.00131542E+00 2.12196565E-03-6.15898942E-03-9.37191374E-04 2.84978269E-04
 4  5-1.20924622E-03 1.19127007E-03 9.36229168E-04 1.17495877E-03-5.47585565E-05
 4  6 7.30921428E-05-1.83335863E-05-8.67885895E-05-3.82165816E-05-1.31617694E-04
 4  7 1.35052660E-07-2.23527908E-06 1.17554242E-05-3.66637779E-07 3.22189402E-07
 4  8-8.94708781E-08 3.09184050E-06 3.64930964E-06 4.45367350E-07 1.13959135E-08
 4  9 6.65187661E-08-7.79146796E-08 2.86352292E-07-1.47229168E-07 3.23404912E-08
 4 10 1.09406827E-02 1.84948256E-05-4.53759774E-05 1.04969113E-05 3.38942011E-06
 4 11 1.39884842E-05-1.04728779E-05 3.57066970E-06-1.33158564E-05-5.95323981E-07
 4 12 9.64096012E-07-3.68772031E-07 6.71600906E-07-5.32507023E-07 1.22572251E-06
 4 13 1.23170731E-06-2.02014242E-07 2.34440543E-05 4.74555040E-07-1.00463407E-05
 4 14 2.37262476E-06-2.11297439E-05 3.56837783E-05 2.93110320E-06-4.80469600E-07
 4 15-9.48816867E-07 1.42928647E-06 1.17979152E-06 1.35425244E-06 8.75134771E-07
 4 16-4.48035215E-04-1.77140880E-04 3.25367186E-04-4.69108049E-05 1.43517603E-05
 4 17-5.10060846E-05-1.89778889E-04-5.82778294E-04-8.99409854E-05-5.15373847E-05
 4 18 8.33292047E-05-3.17918199E-05-4.52283753E-05-3.56005958E-05-8.32484218E-05
 4 19 1.22319097E-07 1.19649106E-07 3.25920892E-07-5.95403174E-07-4.68148060E-07
 4 20-1.42674751E-08 4.94005853E-06 7.96578517E-07-1.46401431E-06 1.23177742E-07
 4 21-1.43986104E-07 2.08083614E-08-2.74556558E-07-2.32435758E-07 8.51784942E-08
 4 22-8.50168910E-07 3.89445512E-06-3.33587933E-05-3.11009122E-06 1.08003970E-06
 4 23 1.03607701E-06 2.09026499E-05-6.05800312E-06 9.38223524E-06-1.31777986E-06
 4 24 1.74434927E-06-4.26569417E-07-2.78560364E-07-1.86042151E-06 9.63738288E-07
 4 25-1.07280750E-05-2.81231870E-05-4.16907291E-04-5.35130788E-06-9.29933654E-05
 4 26 2.43484850E-05 4.00746838E-05 6.31217386E-04-9.51727062E-05-4.19857652E-07
 4 27-1.46955353E-05 1.51153930E-05 1.86575934E-05 1.63449177E-05 3.31456791E-06
 4 28-3.63301407E-06-6.14023716E-06 2.80123373E-05-1.08107389E-06-9.49059889E-07
 4 29-7.10977808E-07 3.26643693E-05 3.06004757E-05 1.85513288E-07 2.97951116E-06
 4 30-5.98233937E-07-2.38127723E-06 1.22523298E-06-6.99758582E-07-6.07408435E-07
 4 31-5.80344198E-05-1.03825730E-04 4.61649806E-04-1.54228969E-05-3.12890731E-05
 4 32 1.22796210E-05 7.80300397E-05 2.49371721E-04-1.85141125E-04 2.42662316E-06
 4 33 1.25977633E-05-1.50243865E-05-7.65135726E-05 7.71094325E-06 4.02555408E-05
 4 34 2.62038058E-05 4.38356020E-05-3.61427567E-04 8.95993124E-08 5.20759442E-06
 4 35-7.51941531E-06-1.30264411E-04-1.28966350E-04-8.31853266E-05-7.21103197E-06
 4 36 6.40053265E-06 8.10499317E-07-9.64970055E-06-9.06925593E-06-2.39473897E-05
 4 37 1.98084323E-06 1.17486532E-05 5.25698485E-04-1.67148628E-05 5.62130348E-05
 4 38 7.55510506E-07-2.12309626E-04 2.25459225E-04-6.28736641E-05 7.96136008E-06
 4 39 8.71038097E-06-1.66717410E-05-6.29929037E-05-6.52725364E-06-2.32320781E-06
 4 40-7.03511757E-05-1.54209063E-04-8.71738102E-06 1.30329284E-05-9.77418837E-05
 4 41 5.93677530E-05-8.18436804E-05-3.93828842E-04-2.31063148E-04 6.24465523E-05
 4 42-1.42404640E-04 7.99580873E-05-2.61636952E-05 6.19049443E-05 1.95348077E-05
 4 43-1.59904748E-06-2.91669630E-06 4.40526763E-05-2.31008164E-07 6.84886093E-07
 4 44-9.93903274E-07-3.54281731E-05 5.05951382E-06 3.67715184E-05-7.64773994E-07
 4 45 2.88389376E-06-2.11911977E-06-2.46361822E-06 1.83411962E-07-1.61684654E-06
 4 46-1.91867546E-06-3.68577237E-06 2.07888674E-05-1.12056912E-07-3.09916470E-06
 4 47-9.43559484E-07-2.67851908E-05 1.63284765E-05-1.28150022E-05 3.55635760E-07
 4 48-2.43374953E-07-1.12260807E-07 2.75558258E-06-1.08230940E-06-5.72460230E-07
 4 49 9.18923428E-06 1.52995473E-05-2.23463088E-05 8.28586048E-07 2.98475837E-06
 4 50-4.99805009E-06 1.16828304E-04-1.20222339E-04-6.74865940E-06-8.94638149E-06
 4 51 3.33441380E-06 5.61196769E-06-1.08779647E-05 9.18794982E-06 7.67987085E-06
 4 52 1.00715731E-04 1.66585090E-04 2.60697068E-03 1.26841486E-04 1.68070201E-04
 4 53 1.21786788E-04 1.56047673E-03 1.83009011E-03 1.38305648E-03-1.05913914E-04
 4 54 1.26255932E-04-2.03420178E-05-1.18324577E-04 4.95357412E-06-2.17804087E-04
 4 55 3.00672319E-06 5.16192452E-06-6.03401611E-05 7.06615385E-07-4.47701336E-07
 4 56 4.44451616E-07-2.89089749E-05 2.32099596E-06 1.22957606E-05-6.63267787E-07
 4 57-1.07192468E-06 1.73519247E-06-4.74802014E-07 1.15041293E-06-2.64498775E-07
 4 58 3.65462331E-06 6.36163313E-06 2.90071185E-05-3.97979818E-07 3.50653916E-06
 4 59 2.60680379E-06 1.07584258E-05 2.30222585E-05 2.21284768E-05-3.44482870E-06
 4 60 5.46751214E-07 2.89807749E-06 2.14283252E-06 6.48758798E-07 5.97245236E-06
 4 61 5.63555778E-05 8.50082122E-05-5.88770545E-06 2.02469175E-05-1.48276376E-05
 4 62-8.56528637E-05-7.39455120E-05 1.11773249E-05 4.41008342E-05 2.61660624E-05
 4 63 2.49580652E-05 1.08291343E-04 4.84699189E-06 2.07415533E-06 4.89093714E-06
 4 64 1.95179724E-05-2.21181788E-05 3.52925893E-06 1.05945331E-05 1.78384815E-06
 4 65-2.08010073E-05-5.80875960E-05 1.55939111E-05 1.34381406E-08 5.42288128E-06
 4 66-1.83191741E-05 2.49864351E-05 1.33878454E-05-1.05837385E-05-2.84789354E-06
 4 67-6.36912635E-05-1.83975097E-04 3.64669828E-05-5.86985972E-05 1.57994036E-05
 4 68-1.00408503E-05-3.61445787E-05-1.67150159E-05-4.21084060E-05 3.87795122E-05
 4 69-4.99329758E-06 5.71026671E-06 2.25319254E-06-4.87831356E-07-2.19099007E-06
 4 70 4.24278633E-06 8.84996988E-06 1.98218500E-06 4.83433945E-07 4.08074919E-07
 4 71-5.38142943E-06-1.02273669E-05-2.18292502E-07-1.47499235E-06 1.46089038E-06
 4 72 9.36709042E-07-2.47053372E-05-3.25444782E-07 2.31997278E-07-2.82498077E-06
 4 73 2.54872770E-05-1.66809644E-05-7.42562528E-06-4.87860110E-06 5.21862515E-06
 4 74 6.40655405E-05-1.81105332E-04-1.44857126E-04 5.36001506E-04-3.25628142E-04
 4 75-1.46394514E-06-1.59032298E-06-5.09830717E-07-1.20789463E-06 5.97926502E-08
 4 76-1.09898206E-07-8.50463591E-07 8.99087092E-07 6.58734859E-06 3.53180983E-06
 5  1 2.82932969E-04-1.78888477E-04 4.71425434E-04 2.15071145E-05-7.54526527E-05
 5  2-2.73152111E-07-5.68588659E-04-3.65210142E-05 3.64447913E-04 6.02732090E-05
 5  3-7.91553559E-05 1.88821469E-05-7.99847287E-05-2.64435091E-05 6.59347867E-05
 5  4 3.71649390E-06 8.35735061E-06-6.86977005E-05-4.11371311E-06 3.34644457E-06
 5  5 2.83383124E-06 3.05267683E-05-1.82435235E-05 4.41676897E-06 3.04037109E-07
 5  6-1.84338227E-06 1.53934516E-06 5.28217168E-07-4.87208488E-07 2.17155987E-06
 5  7-1.19269992E-07 3.05663482E-07-2.69741395E-06 8.98970139E-08-2.05762506E-07
 5  8 1.89214420E-07-9.48177084E-07-2.60291492E-07-6.53947460E-07-4.54188394E-08
 5  9 5.76660886E-08-1.22472492E-08-8.73461539E-08 1.38837668E-07 2.61640975E-08
 5 10-1.23785364E-07-1.19306362E-07 3.93196901E-07 2.26553175E-07 3.18285851E-08
 5 11 2.08985424E-07-4.47528537E-07-3.17674989E-06-8.95239181E-07-7.92903660E-08
 5 12 1.67815158E-07-8.85247918E-08-2.38474674E-07-1.16116989E-08-2.99450815E-07
 5 13 1.00141756E+00 2.13548042E-03-6.61631401E-03-9.60910134E-04-1.35168530E-03
 5 14 8.23929963E-04 8.80946154E-04 1.25135848E-03-7.30496039E-04-5.37092291E-06
 5 15 1.15368779E-04-1.09997856E-04 7.53322190E-05-1.83545028E-04-9.99774151E-05
 5 16-3.52885993E-05-2.14710449E-05 8.23883215E-05-8.50613107E-07 3.67171804E-06
 5 17 3.27731974E-06 1.72221768E-05-2.66854918E-05 1.62235671E-06-2.60173393E-07
 5 18 4.21011923E-07-1.60838531E-07-1.10488302E-06 1.42182006E-06-1.55467360E-06
 5 19-1.02408157E-03-2.34487565E-06 6.16393599E-06-7.79143988E-07 1.46488521E-06
 5 20 1.01859453E-06-1.27349030E-06-1.58581570E-06-6.30190633E-07-1.54008590E-08
 5 21-4.32957483E-08 5.86966073E-08 1.47275178E-07 2.19928465E-07-1.05640460E-07
 5 22 5.47187373E-07 7.00048276E-07-3.27369775E-06-4.49427987E-07 9.41366805E-07
 5 23-2.40088309E-08 1.05594298E-06-3.74456307E-06-3.59959450E-07-2.96646061E-07
 5 24 2.97259192E-07-6.13130465E-10 1.05490418E-07-1.06108487E-07 4.26279578E-07
 5 25-5.66246089E-06-2.03821172E-05 1.25857413E-04 4.08729861E-07 3.81163706E-05
 5 26-3.01574108E-05-2.14739113E-05-7.52984099E-05 9.69363564E-05 1.27840925E-06
 5 27-3.41803817E-05 3.29019724E-05 1.01383352E-05 1.01264778E-05 2.22915752E-05
 5 28-4.49528864E-06-8.04814924E-06 2.96261692E-05-1.80458344E-06-7.20422318E-07
 5 29-4.14461840E-06 3.34672517E-05-5.99711083E-06 1.86926003E-05 3.08819551E-06
 5 30-1.75045174E-06-1.33774377E-06-4.19176525E-08-1.29255680E-06 1.22483063E-07
 5 31-4.22885029E-05-7.71666840E-05 1.74525170E-04-1.86870478E-05 5.93202345E-06
 5 32 6.84944831E-06 1.82293332E-04-1.34851304E-04-5.63651467E-05 1.09139103E-05