 $SYSTEM MWORDS=4800 MEMDDI=639 $END
 $CONTRL MAXIT=200 SCFTYP=RHF RUNTYP=ENERGY ISPHER=1 UNITS=ANGS
  EXETYP=RUN COORD=UNIQUE ICHARG=0                   $END
 $BASIS gbasis=CCD                                   $END
 $SCF DIRSCF=.TRUE.                                  $END
 $SCF DIIS=.TRUE.                                    $END
 $SCF SOSCF=.FALSE.                                  $END
 $STATPT NSTEP=1000                                  $END
 $GUESS GUESS=MOREAD                                 $END
 $ELMOM IEMOM=0                                      $END
 $DATA
 ibuprofen HF/CCD local minima geometry
C1
O     8.0    -3.16134739    -1.55159485     1.03855085
O     8.0    -3.70639110    -1.23317862    -1.07385755
C     6.0     3.88046598    -0.50031006     0.08300188
C     6.0     3.09180880     0.73905414    -0.40072668
C     6.0     1.58320725     0.68975437    -0.25259173
C     6.0    -1.22989309     0.61098599     0.01471743
C     6.0    -2.74906611     0.60159248     0.15332398
C     6.0     3.74605584    -0.74271029     1.58783555
C     6.0     3.54691315    -1.76641357    -0.70889491
C     6.0     0.77191901     0.19374125    -1.27261531
C     6.0     0.95342404     1.15561950     0.89768183
C     6.0    -0.60732597     0.15250814    -1.14429736
C     6.0    -0.42778066     1.11216235     1.03208840
C     6.0    -3.43549395     1.58359277    -0.79907191
C     6.0    -3.26595926    -0.80738646    -0.05670620
H     1.0     4.93222189    -0.26304764    -0.11384952
H     1.0     3.33340168     0.90544564    -1.45351779
H     1.0     3.46717548     1.61199188     0.13918498
H     1.0    -2.98753214     0.86694509     1.18293095
H     1.0     2.72550893    -1.01913846     1.86173689
H     1.0     4.02009678     0.14699048     2.16113520
H     1.0     4.40504837    -1.55507052     1.90401638
H     1.0     4.20483685    -2.58693576    -0.41213077
H     1.0     2.51763964    -2.08916950    -0.53733772
H     1.0     3.67702341    -1.61088109    -1.78320467
H     1.0     1.22333908    -0.16277198    -2.18960714
H     1.0     1.54654419     1.56482530     1.70550942
H     1.0    -1.20336688    -0.24446870    -1.95562792
H     1.0    -0.88218522     1.48106682     1.94289863
H     1.0    -3.06263280     2.59272575    -0.61950982
H     1.0    -3.24455500     1.32180774    -1.83866251
H     1.0    -4.51654339     1.58021867    -0.64716262
H     1.0    -3.46305752    -2.42805099     0.82555932
 $END
--- CLOSED SHELL ORBITALS --- GENERATED AT Wed Jun 24 03:15:53 2015
 ibuprofen HF/CCD local minima geometry
E(RHF)=     -652.5826781236, E(NUC)=  980.7636839532,   13 ITERS
 $VEC
 1  1 1.00142315E+00 2.20915345E-03-6.52857971E-03-5.22563399E-04-4.39593581E-04
 1  2-1.40860499E-03 2.66905432E-04-8.51956127E-04 1.81700556E-03 2.44508455E-06
 1  3 9.37497848E-05-9.61948694E-05 6.48722430E-05 1.11305401E-05 1.21421753E-04
 1  4-4.60626530E-04-1.96114114E-04 4.89343495E-04-1.57667422E-05-1.77519266E-05
 1  5-5.68471523E-05 4.37193439E-05 5.64607171E-04-3.16553580E-04-1.95087530E-06
 1  6 9.35667675E-05-9.16158922E-05 4.87501720E-05-1.58199904E-05 5.30026627E-05
 1  7 2.80222627E-06 5.22599023E-06-1.19039471E-05-2.03130257E-06 1.82161879E-06
 1  8-3.64117745E-07 9.69057568E-06-1.22360803E-05-3.82680847E-05-1.65440949E-06
 1  9 4.87965761E-07 1.16644373E-06-1.04769566E-06 6.54749758E-08-1.48556410E-06
 1 10 3.35610824E-06 5.80972049E-06-1.38297942E-04 3.94103233E-06-7.65506206E-07
 1 11-7.21898346E-07 5.39456501E-05 3.53942567E-05 7.85932617E-05-5.82609690E-07
 1 12-3.86278428E-06 4.44539397E-06-4.07727944E-06-9.07895205E-06-1.31792213E-06
 1 13 7.80354590E-06 1.27084577E-05-8.22383699E-05-9.30905037E-06-9.22952985E-07
 1 14-4.39039164E-06 2.15260560E-04-2.06527268E-04-4.94482213E-04-7.20007657E-06
 1 15 7.30651217E-06-1.06435609E-07 4.56040523E-06 1.36177219E-05-4.11863444E-06
 1 16 1.55841748E-04 2.77532866E-04-1.50242469E-03-3.47176939E-05-4.88047182E-05
 1 17-1.37492198E-05 2.00265040E-03 9.13082624E-04 1.39723461E-03-5.11628860E-05
 1 18 3.09051739E-05 2.02577121E-05-8.73155916E-06 4.13111114E-05 6.10114053E-06
 1 19-1.88997980E-04-3.59674986E-04 1.94867984E-03 7.76704021E-05 1.31254850E-04
 1 20 6.84857625E-05 1.08194479E-03-1.54710285E-04-1.41441057E-03 7.23477333E-05
 1 21-1.57264042E-04 8.49163084E-05-3.51911693E-05 1.42253074E-05 9.64415053E-05
 1 22-3.16380423E-06-5.58425671E-06 3.83791723E-05 1.86417130E-07-1.36769667E-07
 1 23-1.44677516E-07-2.97679673E-06 7.01057819E-06-1.60003795E-05 6.59056146E-07
 1 24-5.77609816E-07-8.14463299E-08-4.39222145E-07 5.92685740E-07-1.14179624E-06
 1 25 1.42976311E-06 2.54163682E-06-1.95463218E-05-6.65258318E-08-1.54190031E-07
 1 26 5.80534987E-07-7.57221027E-06-6.27202738E-06-2.06012761E-06-1.16322295E-06
 1 27 6.11329099E-08 1.10209004E-06-5.07538230E-07-1.61980477E-07-1.59125451E-07
 1 28 5.51262120E-07-2.38539305E-06 3.43869966E-04 1.67575948E-05 6.01275578E-06
 1 29 9.15289269E-06-5.06642982E-04-1.62361243E-04-2.55820729E-04-2.44725036E-05
 1 30 1.25699562E-05 1.19025474E-05 6.22442541E-06-5.77583742E-06-4.01537310E-06
 1 31-9.93164241E-06-1.51310437E-05 7.16808741E-04-1.09479522E-05-1.75416884E-06
 1 32-8.52431426E-08 4.13506198E-05-1.50352501E-04-3.75557549E-04-2.09506819E-06
 1 33-3.36169192E-06 5.45676011E-06 4.85681965E-07-5.20211299E-06 7.64954368E-06
 1 34 3.40193450E-06 1.41977961E-05 4.11574449E-04-6.84399433E-06-2.60225529E-06
 1 35 3.45224602E-05-1.05379183E-03 9.89561373E-05 4.22534772E-04 4.33767980E-05
 1 36-2.51927923E-05-1.81840056E-05-1.15774446E-06-6.47306027E-05-2.40584182E-05
 1 37 4.95551257E-05 8.47238064E-05-1.64566929E-03 1.68656934E-05-2.52424208E-07
 1 38 5.50743309E-06 1.24574096E-04 3.21030998E-04 8.57467016E-04 8.45928356E-06
 1 39 2.70273791E-05-3.54866627E-05 1.09219909E-05-7.84606159E-06-1.92857269E-05
 1 40-1.23321127E-04-2.25851788E-04 1.00078390E-04-6.50755372E-06 8.21860323E-05
 1 41-2.53460603E-05-3.40498131E-04-4.28608200E-04 1.21953034E-04-3.13622256E-05
 1 42-1.17926926E-05 4.31549182E-05 3.74865951E-05 9.83666937E-06-1.77415588E-05
 1 43 6.83690617E-05 1.02483717E-04 2.42348332E-03-2.77264148E-05-1.87008792E-04
 1 44 1.95877455E-04 2.89015178E-04-1.86523643E-03 2.77832006E-03-1.17133388E-05
 1 45 1.26054584E-04-1.14341245E-04 1.16627930E-04 3.53959526E-05 1.91719501E-04
 1 46 4.30312534E-08-1.08451442E-05 4.67722936E-07 3.47961386E-07 2.69633043E-06
 1 47 4.33790246E-06 3.29526635E-05 3.52345413E-06-3.25255181E-06-2.95522190E-06
 1 48 3.40254741E-06-2.13401502E-05-4.65095289E-06-1.35340985E-06-3.27910862E-06
 1 49 2.87336248E-05 3.50260940E-04-3.41125980E-05 7.43935235E-05 3.94996040E-05
 1 50-2.61207509E-06-7.04843877E-07-4.02583235E-07-2.22108258E-07-2.82121381E-08
 1 51-2.01810598E-06-3.33776425E-06 9.50728409E-07-8.08990113E-07 9.23627691E-07
 1 52-2.38096075E-06 4.22431062E-06 1.42493280E-07-2.18922218E-07 4.11913233E-07
 1 53 1.96256968E-06 9.56625569E-07 2.90269708E-07 4.09276872E-07-4.46822829E-08
 1 54 1.65051435E-06-6.90665210E-06 4.86633172E-08-1.07317322E-06 1.94468098E-07
 1 55-5.09577381E-07 7.29226940E-06-1.17801744E-06 8.92869363E-07 5.48605140E-07
 1 56-2.81615321E-05-3.44077802E-05 1.16473341E-05 3.87309749E-06 4.50659219E-06
 1 57-2.37993262E-06 5.35939578E-05 4.72761731E-06 2.52483732E-06 7.46406845E-06
 1 58-1.28488168E-06-1.11603805E-05 1.70977801E-05-1.12138346E-05 2.76326973E-05
 1 59 3.44509375E-06-2.48979756E-04-3.72305837E-06-5.00867477E-06-1.91768375E-05
 1 60 4.31350083E-05 2.25655031E-04-1.17585104E-05 9.54637998E-06-3.81829155E-05
 1 61-7.96503866E-05 4.68731527E-05 1.46320570E-05 3.36266293E-05-1.93510100E-05
 1 62-7.66968242E-05-7.16276795E-05 1.89271741E-05 1.10320074E-05 1.83406680E-05
 1 63 5.09059922E-05-2.78719288E-04-2.17563730E-04-5.64166684E-04-2.20095365E-04
 2  1 2.79566683E-04-1.80677304E-04 4.82179826E-04 1.23573975E-05-4.62727117E-05
 2  2 6.06026152E-05 2.18021812E-04 5.85942874E-04 2.50981210E-04 7.80831603E-06
 2  3 9.73809897E-05-1.05189306E-04 2.39197216E-05-4.56336699E-05-1.92109668E-05
 2  4 1.00143520E+00 2.16584369E-03-6.83582225E-03 6.72021341E-04 6.14507305E-04
 2  5 1.57618504E-03-6.61810524E-04-6.13519508E-04-1.51784753E-03-1.59587971E-04
 2  6 2.27310945E-05 1.36856876E-04 9.54213796E-05 1.36395091E-04 4.46506063E-05
 2  7-1.00138559E-05-1.73709971E-05 1.01892291E-04 1.75517321E-06 1.06248534E-06
 2  8-1.07127635E-06-6.25179963E-05-4.98788586E-06-2.92471795E-05 6.52060434E-07
 2  9-1.22489723E-06 5.72836791E-07-1.10601896E-06 1.05768082E-06 6.96542201E-07
 2 10 1.61691089E-05 2.86900061E-05-1.22629800E-04-4.58795227E-06-1.19747578E-08
 2 11-2.02256147E-07 5.92259959E-05 5.39896304E-05 3.04991151E-05-7.26126935E-06
 2 12 2.50439165E-06 4.75687770E-06-9.92185839E-07-4.73853574E-06-1.49853635E-06
 2 13 8.76848002E-06 1.71617613E-05-1.49346030E-04 4.89423778E-07-1.57996807E-06
 2 14-1.49257420E-06 2.64258806E-05-6.23585644E-05-2.45569662E-04 9.77046622E-06
 2 15-4.72782533E-06-5.04264089E-06-5.71038672E-07 6.77379039E-06-5.30179801E-06
 2 16-3.57488137E-05-5.64536316E-05 9.91525325E-04-1.98681268E-05 3.19522517E-07
 2 17-2.97729725E-05 8.77426125E-04 1.75602949E-04 1.60855277E-04-8.86843312E-06
 2 18 2.77737265E-06 6.09106047E-06-3.67379179E-05 4.15115053E-05 2.89915505E-05
 2 19-1.06232409E-04-2.15180536E-04 1.11586158E-03 3.73621307E-05 9.19115902E-05
 2 20 2.95680850E-05 3.90740699E-04-8.91899573E-04 9.23525125E-04-4.58184668E-05
 2 21 5.62157931E-05-1.03973264E-05-3.47637964E-05-8.84491280E-05-2.66455994E-04
 2 22 8.23297604E-08-1.66137940E-07-1.29505413E-05-7.80215986E-07 2.63814870E-07
 2 23 2.36671870E-06 2.32991284E-05-6.12329506E-06-9.13472535E-08 7.84734816E-07
 2 24 7.76800267E-08-8.62414843E-07-1.69809965E-06-1.07964142E-06-1.35631613E-06
 2 25 4.29637052E-06 7.52883699E-06-5.32972736E-05-2.23232297E-06-6.73695585E-07
 2 26-1.60610328E-06 2.51295852E-05-3.83591938E-05-5.66230704E-06 3.98234202E-07
 2 27 4.32454322E-07-8.30688523E-07-2.41597165E-06 2.13670507E-06-2.07559297E-06
 2 28 2.26849444E-05 3.70676692E-05-4.42072550E-04 8.69887457E-06 1.46170577E-05
 2 29-4.14078845E-06 1.40830015E-04-8.07215657E-05 2.60691094E-06-2.49602286E-05
 2 30 1.46654961E-05 1.02947325E-05-3.26692697E-06 1.31041239E-07-1.23979981E-05
 2 31 1.61488882E-05 2.98298579E-05-6.62553987E-05-1.24641051E-05 5.14592887E-06
 2 32-6.15300004E-07 3.01709264E-04-1.24137200E-04-2.54975900E-04-7.03434015E-06
 2 33 9.03066262E-06-1.99632247E-06-4.81021697E-06-1.52997370E-06-1.92205091E-08
 2 34 1.94606004E-05 3.73459418E-05-1.07427665E-04-1.35440041E-05-1.92973578E-05
 2 35 8.87946742E-06 2.37705953E-04-3.09760384E-05-3.94012845E-04 4.63376613E-05
 2 36 1.15181811E-05-5.78558424E-05-2.43730648E-05-2.48438802E-06-2.10325546E-05
 2 37 2.81517132E-05 4.42966843E-05-5.88466864E-04 7.41423900E-06 8.76910377E-06
 2 38 1.59521636E-05 4.83768361E-04 2.92967241E-04 5.34800053E-04-8.58539632E-07
 2 39 1.88824534E-05-1.80239138E-05-2.17961430E-05-9.31868433E-06-3.17873557E-05
 2 40-1.09897351E-05-2.99136923E-05 5.48344918E-04-4.31424192E-05-6.20509537E-06
 2 41-1.51119663E-05 3.29432606E-04 1.05743638E-05 1.11507915E-04 6.82248810E-06
 2 42-3.92258308E-05 3.24033427E-05-8.17061896E-06-3.67418352E-05 1.05121963E-05
 2 43 1.92590701E-04 1.87494123E-04 1.87571547E-03 1.29310882E-05 1.14722559E-05
 2 44 1.12148466E-04-1.17637612E-03-1.16454987E-03-2.92234732E-03 1.07200687E-04
 2 45 3.07827278E-04-4.15027965E-04-9.86119229E-05-3.61596156E-04-4.13771668E-04
 2 46-3.03592345E-07 9.50043047E-06 2.49401229E-06-1.27609390E-06 2.59043706E-06
 2 47 5.22332339E-06 1.23954693E-06 1.90434370E-06-2.06136829E-06-2.42631284E-06
 2 48 2.91953067E-06-3.21111318E-05-1.73316796E-06 6.35043512E-08-5.75885893E-07
 2 49-1.05461942E-04 2.75329440E-05-4.31488265E-05 2.34998574E-05-8.00883041E-05
 2 50 2.86532817E-06 1.21329249E-05 1.44545723E-06 1.41714509E-07 6.16574327E-07
 2 51 3.68440620E-06-5.83096840E-08-1.54682693E-06-3.70038607E-07-4.86955641E-07
 2 52-3.54980603E-06-4.23375963E-06-5.45902675E-07-9.24122463E-07-4.48489766E-08
 2 53-4.97453238E-06-1.45124640E-05 5.25644757E-07-8.89975339E-07 1.70827293E-06
 2 54 9.26772790E-06-3.36936552E-07 1.47991358E-06-9.70288072E-07-5.36420603E-07
 2 55 7.24189708E-06 6.24687674E-07-3.12905748E-06 2.43918508E-06 6.50752408E-07
 2 56 5.99387394E-06-4.70976889E-06-3.59358361E-06 7.36042637E-06-2.33396082E-06
 2 57 1.33567131E-05 1.21084426E-05-7.98223742E-06 5.32624260E-06 6.66273745E-06
 2 58 4.29635972E-05-2.17232983E-04 1.42686986E-05 1.88586915E-05 3.22870576E-06
 2 59 1.44869505E-05-1.51147600E-04-1.82073709E-05-3.46554704E-06-1.31240943E-05
 2 60-2.85249083E-05-4.97297891E-05-1.10871480E-05-2.18157583E-05 1.84816111E-05
 2 61-7.05488210E-05 2.94963630E-05-5.74633822E-06 5.40985888E-06-1.35126475E-05
 2 62 4.27930041E-05 1.22070471E-05-1.99034459E-05 2.24500419E-05-4.70896136E-06
 2 63 1.43397749E-04 2.87684801E-06 2.19292852E-05 2.66404132E-06 6.56975960E-05
 3  1 1.69809744E-04 6.36714464E-04-2.03199743E-03-3.05043123E-05 1.11948015E-04
 3  2-1.89402179E-04 4.77170911E-04-6.88921630E-05 1.48027028E-03 2.41535870E-04
 3  3-1.33212091E-04-1.08323779E-04-9.10741723E-05-1.03848298E-04 1.41184860E-04
 3  4-2.27453189E-04 4.80696761E-04-1.40218509E-03 1.55967168E-04 1.07505393E-04
 3  5 4.47808403E-04-1.67415242E-04 2.27120799E-04-1.04239902E-03-1.10396144E-05
 3  6-1.22045036E-04 1.33084650E-04 5.90430433E-05 1.47440980E-04 2.32741916E-04
 3  7 1.31787746E-05 2.19932951E-05-1.54702928E-04-2.11382251E-07-3.53562142E-06
 3  8 6.46649101E-07 9.24322552E-05 5.01610922E-05 1.56217582E-04-3.34803100E-06
 3  9 2.50903328E-06 8.38997721E-07-3.86512881E-07-9.16448987E-06 9.22757683E-08
 3 10-3.35746575E-05-5.64320334E-05 1.75073157E-04 6.95818377E-06 6.76227608E-06
 3 11 1.07335397E-05-1.07840021E-04-1.30532466E-04-7.44091967E-05 1.55090532E-05
 3 12-1.42295549E-05-1.27949829E-06-3.00087924E-06-6.62285906E-06-4.81866058E-06
 3 13-4.66916758E-06-9.64258113E-06-2.57935474E-04 7.68062098E-06 3.54059335E-06
 3 14 1.57871133E-05 1.01008876E-04-1.65757826E-04-4.07323713E-04-1.52895526E-05
 3 15 1.57845777E-05-4.95025090E-07 4.01388001E-06 1.13325201E-08 6.75951230E-06
 3 16-2.36058009E-04-3.86651294E-04 1.03862743E-03 9.00038628E-05 7.20094162E-05
 3 17 8.34133979E-06-3.01353959E-03-2.09059345E-04 8.70347935E-04 1.15510176E-04
 3 18 1.28563355E-05-1.28366512E-04 1.09215160E-04-5.32880532E-06-5.74527026E-06
 3 19 2.69931715E-03 3.72792190E-04-8.20892653E-04-8.17253777E-05-1.43368458E-04
 3 20-8.60552154E-05-1.99902051E-03-9.46049582E-04 4.42884487E-04-4.03548488E-05
 3 21-4.11505693E-05 8.15054182E-05-4.26854212E-05-1.78699833E-05 1.36997750E-04
 3 22 5.94392576E-06 1.04504378E-05-4.48714398E-05-6.22506771E-07 2.60910030E-06
 3 23-1.84875152E-06-1.70637300E-05-4.11605152E-05 4.84040737E-05-9.28632615E-08
 3 24 1.34071643E-06-1.24785317E-06-3.22574122E-06 3.78706693E-06 2.35596786E-06
 3 25-1.22877277E-05-2.04595623E-05 1.46052702E-04 4.26550049E-06 9.69899648E-07
 3 26 3.79285322E-06-4.06678017E-05 1.02242271E-04 6.21269782E-06 1.51154998E-06
 3 27-2.62304406E-06 1.11149408E-06 1.13502742E-05-4.60161038E-06 4.16572332E-06
 3 28-8.37515590E-05-1.35739020E-04 1.55352198E-03-2.63053380E-05-2.35667239E-05
 3 29 2.89693494E-06-1.35347812E-03 1.02730105E-05-2.02518800E-05 8.83942516E-05
 3 30-6.50042676E-05-2.33899840E-05-2.48825141E-06-1.78774851E-05 3.30387755E-05
 3 31-2.62640154E-05-4.20895316E-05-2.97206895E-04 2.13585066E-05 8.65064539E-06
 3 32 1.04239143E-06 4.25894165E-04-1.86751678E-04-2.89547381E-04 1.51801255E-05
 3 33-2.33565293E-05 8.17640380E-06 1.27369382E-05 2.11243061E-06 1.09289036E-05
 3 34-3.82926788E-05-5.34050998E-05-3.39839566E-04 3.98798225E-05 5.76991361E-05
 3 35-1.26170436E-05-1.34978950E-03 2.94752347E-04 1.13160440E-03-1.36855851E-04
 3 36 2.84789188E-05 1.08376933E-04 7.97137462E-06 9.54147663E-06 8.62166998E-05
 3 37-2.82365406E-05-5.06732641E-05 9.19493806E-04-3.44121300E-05-2.32726561E-05
 3 38 1.66371191E-05 9.34283471E-04 2.37724658E-05-6.52520977E-04-3.60676493E-05
 3 39-1.13676079E-05 4.74352572E-05-2.04203337E-05-2.90329807E-06 2.55205298E-05
 3 40-1.14376547E-04-1.62228849E-04 7.07512568E-04 6.74756226E-05 3.05589118E-05
 3 41 4.44843121E-05 6.67953245E-05-7.23725211E-04-1.72825481E-04-3.90670814E-05
 3 42 1.24870660E-04-8.58035791E-05-2.51692092E-05 5.49340851E-05-1.87657066E-05
 3 43 1.00189511E+00 3.75440616E-03-4.47391881E-03-5.06354887E-05-8.29424888E-04
 3 44 3.73171401E-04-1.15059625E-03-2.93401866E-03-2.87174872E-04-6.84785875E-04
 3 45-2.88231207E-05 7.13608996E-04 3.02909560E-04 5.27312656E-04-8.76034064E-05
 3 46 2.98568482E-06-3.17834871E-06-5.65053700E-06-1.30571142E-06-1.04444446E-05
 3 47-3.86046315E-05 1.45627094E-05 1.08840961E-06 4.36227557E-06 3.30397254E-07
 3 48 2.50513325E-05 5.47254657E-05-5.61216284E-07-3.92074888E-06-4.79581681E-06
 3 49-5.56908500E-05 3.66656365E-05 7.89898454E-06-1.56578807E-04 2.69596876E-06
 3 50 5.45815941E-06-3.22297431E-05-1.06946144E-06 4.16389200E-07-2.97341578E-06
 3 51 9.33029398E-06-1.26858153E-05 1.44312672E-06 2.94166713E-06 4.75187793E-07
 3 52-4.54501722E-06-2.10553566E-05 3.51294590E-06-9.00531086E-07 9.07198852E-07
 3 53 1.25925089E-05 3.79465502E-05-3.57422573E-06 3.29704868E-06-3.40393687E-06
 3 54-2.15986928E-05 2.64541393E-06-4.87232673E-06-2.46937069E-07 1.34390245E-06
 3 55-1.93800476E-05-2.82528166E-06 5.83570999E-06-4.52443641E-06-2.38568605E-07
 3 56-1.68602725E-05 1.15956599E-04 4.47945624E-05-6.95762946E-06 4.87671870E-06
 3 57 1.22788158E-05 6.02298325E-05-1.65700176E-05 1.18129697E-05 9.65626811E-06
 3 58-8.74159662E-05 3.78847109E-04 4.74828319E-05-1.00817434E-05-3.40234434E-05
 3 59 5.70692917E-05 3.10317923E-04-2.41926062E-05-1.44783497E-05 2.39039355E-05
 3 60 2.57697588E-05 3.92474855E-04 1.69978195E-05-2.91095631E-06 3.38812577E-05
 3 61-5.63857266E-05-3.53946849E-04 8.33368482E-06 3.55832699E-05 6.93429865E-06
 3 62-1.09399677E-04-1.17339898E-05 1.05958785E-05 5.97890949E-05 1.32949235E-06
 3 63 5.93068407E-04-1.30393236E-04 5.67366101E-05 2.87761987E-04-6.64276647E-05
 4  1-1.00408892E-04-2.13606408E-04 2.94182756E-04-4.78918988E-06-8.99044582E-05
 4  2 7.19703982E-05 6.12668901E-05 2.94122000E-04-1.73082581E-04-9.77112303E-06
 4  3 9.89233655E-06-1.21213517E-07 2.00561877E-05-9.36933159E-07-3.36045417E-06
 4  4-6.95493084E-05-1.48080432E-04 1.54012358E-04-2.97679315E-05-4.92977378E-05
 4  5-2.08084315E-05 3.53854291E-05-2.20476290E-04 2.18134588E-04-4.17785785E-05
 4  6-1.11904081E-05 5.29689866E-05 1.48604373E-05 2.72183629E-05-4.79973247E-05
 4  7 2.63143660E-05 3.93829093E-05-2.63494907E-04-1.90491553E-06-6.71145925E-06
 4  8-1.95467479E-08 1.51107071E-04 3.23813369E-05 6.39653689E-05-4.11595292E-06
 4  9 5.34398183E-06-1.22802891E-06 3.46987843E-06-5.03958932E-06-2.50566313E-06
 4 10-8.57125565E-05-1.12267832E-04 2.90927422E-04 2.08868047E-05 6.53826346E-06
 4 11 5.09488889E-06-2.15842062E-04-1.62620558E-04 8.16400857E-06 2.57117444E-05
 4 12-2.00894637E-05-5.62228070E-06 9.32470431E-07-7.88883293E-06 2.44137208E-06
 4 13-6.21155129E-05-5.80996920E-05-2.43466271E-04 1.00697739E-05 6.80894936E-06
 4 14 8.02732785E-06 2.01432441E-04-5.15403186E-05-2.26632644E-04-1.52738980E-05
 4 15 4.41099537E-06 1.08629026E-05 1.44104647E-06-2.10453214E-06 3.76429126E-07
 4 16 3.63071889E-02 2.93756166E-04 1.63328873E-03-1.65325623E-04 8.54896121E-06
 4 17 6.69711023E-06-3.59288669E-03-1.50755545E-04 3.34669902E-04-1.87320681E-04
 4 18 9.33389522E-05 9.39817289E-05 1.44585956E-05 1.04338676E-04-6.52669127E-06
 4 19 1.00237142E+00 6.18602555E-03-1.65410812E-02 4.16312339E-05-2.87099163E-04
 4 20-6.99165287E-06-1.36977528E-03 1.19479824E-03 2.16578628E-03-2.08236547E-04
 4 21-5.69221718E-05 2.65158718E-04-2.63863703E-05-1.01726913E-04 7.71760686E-05
 4 22-4.86623180E-06-5.95021417E-06 6.40380040E-05 2.27632137E-06 9.87306519E-07
 4 23-4.07443289E-06-5.69670524E-05-1.42163170E-06-6.21310824E-06 3.20965348E-07
 4 24-2.84220745E-06 2.52124210E-06 2.85814830E-06 1.42609291E-06 3.87790529E-06
 4 25-1.32081459E-05-1.78216661E-05 1.79307739E-04 2.57990136E-06 5.72237068E-06
 4 26 4.29325012E-06-5.36707116E-05 5.13039504E-05 1.94808293E-05 3.21130380E-06
 4 27-3.33018365E-06 1.18879847E-07 5.59949061E-06-3.66236928E-06 3.27055823E-06
 4 28-9.54867170E-05-2.39451662E-04 2.18951735E-03 9.88841975E-06 3.48476554E-06
 4 29-1.47225316E-05-1.58579855E-03-8.83538376E-05 1.83288035E-04 8.40792384E-05
 4 30-7.17180493E-05-1.23611890E-05 1.64518000E-05 2.80909458E-06 3.51813391E-05
 4 31-3.26032881E-05-1.57590588E-04 1.03936534E-03 2.30057574E-05 6.69698092E-06
 4 32 4.82692504E-06-6.15633613E-04-1.18728777E-04-1.27709666E-04 5.12164034E-05
 4 33-4.58344983E-05-5.38190505E-06-5.19568957E-06-3.01610588E-05 2.44814930E-05
 4 34 7.28750039E-04-1.10256600E-04-4.93271965E-04 7.73191043E-05-1.24469720E-05
 4 35-1.39940669E-05-1.79491910E-03 3.89972409E-04 9.74534428E-04-3.47585459E-05
 4 36-6.48663647E-05 9.96249105E-05 2.34130489E-05 8.53820306E-05 1.19960772E-04
 4 37 7.42940320E-04-1.83664714E-04 5.73235651E-04 5.83954084E-05 2.54241453E-05
 4 38 3.46254609E-05-5.96058353E-04-2.75142092E-04-5.67469091E-04-5.15790044E-05
 4 39-6.26222667E-05 1.14201271E-04-4.53697135E-05-9.07953028E-05 9.09717824E-05
 4 40 1.09235490E-02 4.19010810E-06 3.42097211E-03 1.11716594E-04-1.68432613E-04
 4 41 1.51794373E-04 7.31397620E-04-9.93780926E-04 5.09497992E-04 8.37547065E-05
 4 42 1.29751032E-05-9.67298097E-05 4.05049182E-05-9.98234012E-05 1.47720269E-04
 4 43-2.62943868E-03 7.58500999E-06 3.24692269E-03 1.25655121E-04 2.16095205E-04
 4 44-2.16105475E-06 7.11243943E-04 2.19862549E-03-3.18157553E-04 6.38184557E-05
 4 45-2.02011339E-04 1.38192884E-04-9.18540228E-05-4.37320869E-05-1.65546209E-04
 4 46 2.31409155E-06-1.05447717E-05-8.40536885E-06 1.62913857E-06-6.40485075E-06
 4 47-3.39189558E-05 7.48656556E-05-7.53074571E-07 4.33327537E-06 4.84112746E-06
 4 48 6.89363318E-06 7.49249781E-05 2.35238272E-06-2.90963816E-06-5.73144071E-06
 4 49 2.19208441E-04 7.38931504E-04-9.24874261E-05 9.00561087E-05 4.03952362E-04
 4 50-9.30798722E-06-3.45020866E-05-4.81619138E-06-1.46402856E-07-3.98793629E-06
 4 51-2.23231946E-06-1.88085494E-05 6.36379491E-06 1.11558678E-06 3.36434652E-06
 4 52 2.76505109E-06 7.08466395E-06 2.17267718E-06 2.94456658E-06 1.25921977E-06
 4 53-1.34546656E-07 1.58440284E-05 5.86752279E-07 1.03580758E-06-2.65053718E-06
 4 54-1.48943074E-05-5.17344799E-05-8.94283391E-06 8.10182659E-07 3.60478631E-06
 4 55-1.17208416E-05-1.54376970E-05 5.51533230E-06-2.34046956E-06-2.32288324E-06
 4 56-2.79954797E-05 2.14842323E-04 5.68688430E-05 1.41876222E-05 1.06315048E-05
 4 57 1.16056253E-06 1.83031024E-04 1.72273273E-05-4.47467624E-06-1.50598995E-05
 4 58-1.60113198E-04 5.14959125E-05 5.76873958E-05-3.02237676E-05-8.53497146E-05
 4 59-1.45899822E-04-5.21626169E-05 4.59266502E-05 4.62145957E-05 9.50557366E-05
 4 60-1.91065825E-04-2.37986934E-05 3.06426370E-05-6.26935471E-06 5.56232869E-05
 4 61-1.69310724E-04-1.37705458E-04 3.89228064E-05-8.23907085E-05 6.59539817E-05
 4 62-2.24434093E-04-8.32209877E-05-4.07272978E-05-4.57720867E-06 3.76622510E-05
 4 63 1.65562467E-04 3.75225809E-04-8.14658714E-06 6.48464527E-05-3.90846021E-05
 5  1 1.61749440E-04 2.91288333E-04-1.37943039E-03 3.02441014E-06 2.94330155E-05
 5  2 2.56084953E-05-1.11044542E-04-4.34483219E-04 3.11137668E-04 1.89944535E-05
 5  3-2.18584766E-05 2.86402317E-06-1.92555533E-05 5.69188051E-06 1.07492280E-05
 5  4-3.03464978E-05-5.30850747E-05 4.50266808E-04 6.12286984E-05 3.32574728E-05
 5  5 1.04484658E-05-2.61609986E-04-1.28029440E-04 2.68478619E-05 4.52126403E-08
 5  6-6.44305333E-06 6.39784069E-06-1.31067998E-05 1.80116930E-06-6.97407667E-06
 5  7 2.21424744E-05 3.44365435E-05-2.24235414E-04-2.17818513E-06-3.33115433E-06
 5  8 2.40513461E-06 1.13765603E-04-3.83375249E-05-7.06015107E-05 8.07553007E-07
 5  9 1.02702027E-06-1.83457328E-06 4.13046360E-06-1.62048825E-06-4.48897423E-06
 5 10-6.97254547E-05-7.58338384E-05 4.10084948E-04 1.65782558E-05 2.54813010E-07
 5 11-4.39110464E-06-1.96702855E-04-6.65514934E-05 1.81584299E-04 8.47219722E-06
 5 12-9.65097986E-06 1.17878263E-06-3.21931250E-06-1.21753726E-05 1.17513897E-06
 5 13-1.35416933E-03-1.57338131E-04 1.58228992E-03 9.63249644E-06-1.35290256E-06
 5 14-7.93958730E-06-7.83306921E-04-2.21866930E-04-4.20544586E-04-7.06519078E-06
 5 15-2.57153340E-05 3.27805248E-05 1.33038312E-05 1.40653004E-05 3.34227215E-05
 5 16 9.97728107E-01 4.93688654E-03-1.20011754E-02-2.48860385E-04-3.91279644E-05
 5 17-5.33384382E-05 4.44893520E-04 6.68508301E-04 1.60538358E-03 1.18280496E-04
 5 18-2.94924507E-04 1.76644011E-04 5.56321683E-05 8.09969479E-05 2.92900899E-04
 5 19-3.60635072E-02 2.78805091E-04-1.12937466E-03 1.63095073E-04 4.75330501E-05
 5 20 1.16569569E-05 1.04958088E-03 5.24263884E-04 3.90697091E-04-2.46340806E-04
 5 21 8.59171099E-05 1.60423697E-04-3.79535320E-05-2.07326455E-05 1.41870768E-05
 5 22-8.56337660E-06-1.34049807E-05 1.22317262E-04 2.45208652E-06-8.41856997E-07
 5 23-5.20512669E-06-3.51733238E-05 3.48375572E-05-5.34960766E-05 5.07144352E-08
 5 24-3.26957161E-06 3.21885717E-06 2.23440280E-06 1.71665182E-06-2.98833802E-07
 5 25 1.03259343E-06-2.33666199E-07 2.77291896E-05 2.32011514E-06 2.85276875E-06
 5 26 3.40389813E-06-3.60366626E-05 1.59692787E-05 3.69716596E-06-2.78179947E-06
 5 27-2.85641246E-07 3.06744072E-06-1.29178941E-06-1.73599049E-06 2.46925639E-06
 5 28 2.26293333E-03-4.71310022E-05-2.57081005E-04 2.79114853E-05 2.76322960E-06
 5 29-1.43770364E-06-8.83879407E-04-5.52748406E-04-1.08327650E-03 2.24562528E-05
 5 30-2.89565983E-05 6.50034548E-06-1.30887899E-05-5.03970416E-05 1.69210265E-05
 5 31 3.01339304E-03-6.61200272E-05 4.54444260E-04-2.02494422E-05-2.82321276E-07
 5 32 1.39400934E-05-3.80615920E-04 2.13956428E-04 4.88164579E-04 7.72076703E-05
 5 33-5.68987225E-05-2.03089477E-05 2.15433604E-05 2.58665465E-05 2.46919001E-05
 5 34 5.49768410E-02-1.14482726E-04 2.97023956E-03 2.43128493E-05-1.30254585E-05
 5 35-1.88925309E-05-1.60880938E-03 9.21749374E-04 2.25292797E-03 1.16764034E-06
 5 36 1.52613129E-04-1.53780769E-04-2.43835375E-05-4.77748496E-06-1.79725095E-04
 5 37 7.01012291E-02-3.54222461E-06 4.62145678E-04 8.56480877E-05 5.07741015E-05
 5 38 7.36874217E-05-9.21674749E-04-4.66297165E-04-8.47011245E-04-1.01444347E-04
 5 39 1.99242193E-04-9.77978465E-05-5.39679815E-05-4.84736852E-05-2.04799388E-04
 5 40-1.22244532E-03-5.40267598E-04 1.60148912E-03-1.32153137E-04 1.57689941E-05
 5 41 1.51194865E-06 1.25825690E-03-7.54060794E-04 2.00556921E-04 1.00636138E-04
 5 42-4.04276255E-05-6.02085127E-05-8.08124929E-05 2.67256264E-05-7.59697077E-05
 5 43-1.80591311E-04-5.30282180E-04 2.78609638E-03-7.37769695E-05-8.56900997E-05
 5 44-1.36433111E-05 1.27347284E-03 9.27231405E-04 1.23511712E-03 7.79893706E-06
 5 45 2.89220847E-05-3.67210217E-05 1.33403763E-04 2.22743741E-06-1.53379685E-04
 5 46 2.21866586E-06-2.30403277E-05-2.44406369E-06 6.45920319E-06 2.33096961E-06
 5 47-2.12872223E-06 1.10888518E-04-1.06597001E-06-6.61201352E-07-7.34150543E-07
 5 48-1.34683796E-05 4.57269885E-05-1.08342549E-05-7.23280908E-07-6.95303878E-06
 5 49 2.78882359E-05-3.32825969E-04 6.57482230E-05 4.62795135E-05 9.07601360E-06
 5 50-1.18193489E-05 1.29779186E-06-1.77761598E-06 1.17686564E-06-3.12000036E-06
 5 51-1.10607659E-05-9.69486173E-06 4.04010487E-06-1.50887880E-06 4.10551713E-06
 5 52 1.55619192E-06 1.65014142E-05-1.47213260E-08 8.07524575E-07 1.81758329E-06
 5 53 4.48473448E-06 5.68720370E-06 8.73109774E-07-3.69707843E-07-1.35037826E-06
 5 54-3.45986360E-06-1.11669537E-05-4.45453701E-07 2.54558649E-06 1.44350276E-06
 5 55-5.59301143E-06 3.03752940E-07 8.67826239E-07-1.16191284E-06-1.91765130E-06
 5 56-9.29925149E-05-1.57081653E-04 1.60709247E-05 1.08839107E-05 1.64705431E-05
 5 57-6.66795183E-05-5.60991669E-05 1.20132289E-05-3.40576037E-06-5.18518705E-06
 5 58 7.29504505E-05 4.49343125E-04 9.45775460E-05 3.31024263E-05 7.16071398E-05
 5 59 5.63424311E-05 3.02405447E-04 5.94778848E-05-2.44800838E-05-7.38130458E-05
 5 60-2.16479624E-04 1.45424452E-04-1.23162957E-04 3.68098195E-06-1.19888415E-05
 5 61-2.17107523E-04-2.99183109E-04-1.29879019E-04 2.21165092E-05-1.86610867E-05
 5 62-1.77681035E-05 6.40848633E-04-3.89982698E-06 2.57218154E-05-6.29035503E-06
 5 63 8.52936396E-05-2.02327871E-05-1.61504476E-05 7.57148464E-05-5.10494310E-05
 6  1-3.05495415E-06-5.03958163E-06 4.59853910E-05 1.25687657E-06 1.39203225E-06
 6  2-2.10042870E-06-8.38830934E-06-9.43690328E-06-3.97165127E-06-3.06551950E-07
 6  3 3.68610665E-07-6.20587157E-08 1.78300165E-07-2.05945589E-08 2.14420380E-07
 6  4 1.22249070E-05 2.23586614E-05-1.15716855E-04-4.85984833E-06 2.36368916E-06
 6  5-1.71269443E-06-5.79438361E-06-3.16792818E-05-1.66473101E-05-4.29188793E-07
 6  6-4.83539204E-07 9.12727997E-07-2.02455504E-07-1.48564185E-06-2.86712473E-07
 6  7-3.67811502E-04-6.85966040E-04 2.52358556E-03 1.76502159E-04 2.77156638E-05
 6  8-2.73202195E-05-2.03610590E-03 7.24641486E-04-1.42690616E-04 5.83305515E-06
 6  9 7.40411975E-05-7.98742527E-05-1.15342304E-04 4.02102366E-05-8.39496621E-05
 6 10 3.12145466E-02 4.99112614E-04-9.02135558E-04-1.12559034E-04 1.45909656E-05
 6 11 3.09990576E-06-8.32780245E-04 1.52932305E-03-6.10059956E-04-2.72574477E-04
 6 12 1.25690797E-04 1.46883680E-04 7.14796635E-05 7.19450350E-06 6.83588105E-06
 6 13 9.92729252E-01 4.72338010E-03-1.17185710E-02 2.60105243E-05-7.74415207E-05
 6 14 3.19231200E-05 5.49333955E-04 5.56285224E-05-5.13445218E-05 1.43968043E-04
 6 15-2.90061380E-04 1.46093337E-04 9.43186956E-06-6.04791481E-07 2.75488346E-04
 6 16-1.07816279E-03-1.69474627E-04 1.55231494E-03-2.26478029E-05 1.30820602E-06
 6 17 1.64392937E-06 7.24114933E-04-4.89982762E-06-5.18122766E-05-1.28992612E-05
 6 18-2.33892006E-05 3.62884618E-05 2.27045153E-06 4.73982894E-06 3.64179280E-05
 6 19-6.44909327E-06-8.28060395E-05 2.74700783E-04-1.49465388E-05 3.21959700E-06
 6 20 1.09817860E-06 3.14475372E-04 4.61740666E-05 1.08458848E-05 2.14404643E-05
 6 21-2.34360715E-05 1.99560714E-06-7.77527017E-07-1.10657517E-05 6.57503457E-06
 6 22-1.60508466E-04-8.03999531E-05-6.39291779E-04 2.79202213E-05-3.65739729E-05
 6 23 9.70816590E-05 3.50137483E-04 2.66813853E-04-9.06722248E-06 1.66802687E-06