 $SYSTEM MWORDS=7000 MEMDDI=982 $END
 $CONTRL MAXIT=200 SCFTYP=RHF RUNTYP=ENERGY ISPHER=1 UNITS=ANGS
  EXETYP=RUN COORD=UNIQUE ICHARG=0                   $END
 $BASIS gbasis=CCD                                   $END
 $SCF DIRSCF=.TRUE.                                  $END
 $SCF DIIS=.TRUE.                                    $END
 $SCF SOSCF=.FALSE.                                  $END
 $STATPT NSTEP=1000                                  $END
 $GUESS GUESS=MOREAD                                 $END
 $ELMOM IEMOM=0                                      $END
 $DATA
 methylphenidate HF/CCD local minima geometry
C1
O     8.0    -0.01957082    -2.17123365     1.01725554
O     8.0     0.25155687    -2.76582956    -1.09467471
N     7.0    -1.32146311     1.61486816    -0.35649395
C     6.0    -1.27521873     0.21342902     0.03285601
C     6.0    -2.57132053    -0.53135496    -0.32275894
C     6.0    -0.03131798    -0.43802163    -0.60216814
C     6.0    -3.79065394     0.18803759     0.26121023
C     6.0    -3.80626535     1.66403270    -0.13871714
C     6.0    -2.46673846     2.32297921     0.19229464
C     6.0     1.28272641     0.25900495    -0.25932521
C     6.0     0.08013189    -1.91886091    -0.28195634
C     6.0     1.69325602     0.45631284     1.05847228
C     6.0     2.11722064     0.69056052    -1.28397465
C     6.0     2.89913344     1.07928717     1.33739662
C     6.0     3.32727981     1.31452000    -1.00723863
C     6.0     3.72220993     1.51240957     0.30558693
C     6.0     0.13544799    -3.52085423     1.42233920
H     1.0    -1.16157448     0.18966907     1.11899149
H     1.0    -2.54073262    -1.55994201     0.04384252
H     1.0    -2.66445398    -0.58581203    -1.41412318
H     1.0    -0.14725170    -0.40916112    -1.68519747
H     1.0    -3.76216984     0.11066592     1.35414314
H     1.0    -4.70984745    -0.30760586    -0.06035160
H     1.0    -3.99210453     1.74866128    -1.21615744
H     1.0    -4.62271547     2.19101334     0.36351478
H     1.0    -1.33856714     1.68331444    -1.36100936
H     1.0    -2.44091225     3.35226607    -0.16998419
H     1.0    -2.34152889     2.37271667     1.27870142
H     1.0     1.07121682     0.11796895     1.87389803
H     1.0     1.82178104     0.53992021    -2.31414843
H     1.0     3.19886446     1.22659826     2.36685658
H     1.0     3.95914674     1.64452839    -1.82134140
H     1.0     4.66329384     1.99863207     0.52617538
H     1.0     1.11766708    -3.89351106     1.13979554
H     1.0    -0.62868935    -4.14789867     0.96767187
H     1.0     0.02896287    -3.52051044     2.50301838
 $END
--- CLOSED SHELL ORBITALS --- GENERATED AT Wed Jun 24 03:17:39 2015
 methylphenidate HF/CCD local minima geometry
E(RHF)=     -745.4647072430, E(NUC)= 1245.8675940441,   13 ITERS
 $VEC
 1  1 1.00150967E+00 2.35730031E-03-7.43184883E-03 2.40904776E-04-9.42850733E-04
 1  2-1.05377386E-03-2.96333005E-04 9.65008372E-04 1.64955171E-03 9.75851130E-05
 1  3-7.22808023E-05-2.53043108E-05 2.53623493E-05 9.15031848E-06 4.07884917E-05
 1  4-3.82936897E-04-1.07622050E-04 2.64948668E-04 3.60017403E-06-4.51628111E-05
 1  5-2.26004471E-05 3.85101456E-05 4.26283237E-04-5.80178390E-04-1.41090928E-06
 1  6 1.22160899E-04-1.20749990E-04-1.06660812E-05 1.95396882E-05-3.02266594E-05
 1  7 2.10654233E-05 3.96521933E-05-2.54546404E-04 1.93555273E-06-3.98292393E-06
 1  8 1.22398096E-05-6.13716519E-05 1.15605266E-04-1.84635237E-04-1.06844673E-06
 1  9-2.52953299E-06 3.59797972E-06 1.10614733E-05-3.25758874E-06 8.45019236E-06
 1 10 1.35013936E-05 3.06332952E-05 8.45160709E-04-1.47595402E-05-3.71828186E-05
 1 11-2.31503143E-05 7.08302383E-04 3.71672145E-04 8.94072617E-06 2.47900417E-05
 1 12-2.86061399E-05 3.81609814E-06 8.96766739E-06-9.05553489E-06 1.15262552E-05
 1 13-6.38876651E-06-7.54957756E-06 4.86586382E-04 4.73987158E-05 1.23218927E-06
 1 14 9.91624048E-07-1.12528505E-04 7.29000180E-05 1.24045045E-04 4.97373265E-06
 1 15-8.79744854E-06 3.82371590E-06-3.17448651E-05-2.87435842E-06 4.37743168E-06
 1 16-3.81016765E-05-9.93378885E-05-1.00149255E-04-1.55128346E-05 1.91774344E-04
 1 17-1.03966291E-05 4.52254528E-04-8.49825644E-04-1.30148510E-03-4.07511743E-08
 1 18-6.96110062E-05 6.96517574E-05 3.91299261E-06 9.95416659E-06 1.48791752E-04
 1 19 4.60925603E-06 5.21014889E-06-2.39871503E-04-2.31912438E-05 1.05964261E-05
 1 20-2.62998306E-06 2.87445982E-05 4.38886198E-05 1.35599365E-04 4.01949891E-07
 1 21-5.20950337E-06 4.80755348E-06 8.75221383E-06 6.33620982E-06-4.52812645E-06
 1 22-1.65242806E-06-2.59818159E-06 3.55919910E-05-1.86825796E-06-5.93683599E-06
 1 23 2.80101749E-06-4.19723439E-05-4.03371443E-05-5.37590626E-05-1.85865666E-06
 1 24 4.86276351E-06-3.00410685E-06 3.75214724E-06-1.72751943E-06-1.57747637E-08
 1 25-1.31218180E-06-7.62991585E-07 6.76873714E-05 8.67236162E-06-5.82203165E-06
 1 26-1.73304231E-06-1.65504437E-05-2.37626108E-05 2.99974749E-05 9.27887208E-06
 1 27 9.63972105E-06-1.89185931E-05-4.84815537E-06 6.06247324E-06-2.23538295E-06
 1 28 5.45213168E-05 1.01604025E-04 1.17577170E-04-1.75020372E-05-2.28898888E-05
 1 29 2.29398023E-05-1.40230960E-04 2.62809658E-04 1.96181851E-04 5.02900664E-05
 1 30-4.52868154E-05-5.00325093E-06-3.95171850E-05-3.12728530E-06 1.62622926E-06
 1 31 9.74781917E-05 1.53341583E-04 2.09277106E-03 1.04063957E-05-1.68671697E-04
 1 32 2.60689714E-04-3.21189064E-04-6.44688637E-04 2.86537330E-03-5.40374841E-05
 1 33 3.00416726E-04-2.46379242E-04-4.73764951E-05 3.37477912E-05-2.39779409E-05
 1 34 4.00489527E-05 7.51419296E-05-3.15962492E-04-1.23775161E-06-1.63976760E-05
 1 35-2.10492812E-05-8.93499998E-05-5.91979524E-05 2.07583340E-04 2.57301046E-05
 1 36-5.05779797E-06-2.06723067E-05-3.81714598E-06 7.43305653E-06 1.11773839E-05
 1 37-2.24240323E-05-4.04469632E-05 4.61646231E-04-1.52590391E-05 1.12440856E-05
 1 38-1.37041380E-05 3.18259589E-04 1.88353996E-05 1.89742372E-04 2.93361453E-06
 1 39-3.51723643E-06 5.83621900E-07 3.11530169E-06 1.05344552E-05-3.34079441E-06
 1 40-1.14536227E-05-2.11154932E-05 7.10774350E-05-9.51525196E-07 7.22988466E-06
 1 41 7.00832970E-06-1.04243909E-04-6.90874055E-05-7.55625219E-05-4.12725869E-06
 1 42-4.68858010E-06 8.81583879E-06-7.92213470E-07 5.61004895E-06 7.34957458E-06
 1 43 1.97184252E-05 3.29119628E-05-4.27242461E-04 4.80024812E-06 3.23625680E-06
 1 44 5.31564390E-06 2.31412636E-04 1.66760419E-04-3.57952393E-05-2.17335337E-06
 1 45 5.00961364E-06-2.83626027E-06-1.68220749E-05 7.26489894E-06-2.48259261E-06
 1 46-2.49069238E-06-3.79617792E-06 7.09641698E-05-5.52328300E-08 5.35343995E-06
 1 47-1.09589926E-05-5.80867182E-05-4.87861065E-05 6.02965756E-05-3.24414793E-06
 1 48-2.66549684E-06 5.90964478E-06 1.07580205E-06 5.22585243E-07 4.24684035E-06
 1 49 1.05015830E-04 2.27180007E-04 1.58919642E-03-3.21442541E-05 3.31332211E-04
 1 50-1.49235558E-04-1.39871977E-05 3.19354044E-04-2.97528497E-04 1.23912414E-04
 1 51-1.93759236E-04 6.98468229E-05 5.92230888E-05 1.24776911E-05-4.46352979E-05
 1 52-4.63378148E-05-1.14863683E-04-2.21183703E-05-2.33289855E-05 9.03512944E-06
 1 53-7.96973696E-06-2.09908496E-04-4.95033566E-05 6.15526798E-06-1.04887449E-05
 1 54-1.67705167E-05 1.01152175E-04 2.53743117E-05-9.42492405E-06 7.96130043E-06
 1 55-2.24602014E-04-1.40543036E-04-2.93250525E-05-1.05566501E-05 2.06537427E-05
 1 56-2.38794786E-05-1.47946134E-06-2.72129412E-06 2.52722000E-09-2.62846021E-06
 1 57 3.11787675E-05 5.53821866E-05 1.04075116E-06 4.34813073E-06-5.54192016E-06
 1 58-7.50819073E-06-2.84919073E-05 2.68379311E-06 3.50057471E-07-4.14626561E-07
 1 59 1.76074050E-06-8.74244823E-06 3.29491598E-06 4.27485172E-06 4.21895198E-06
 1 60-4.35327544E-05-9.17419206E-05 6.95886712E-07 5.11806967E-06-1.57228666E-05
 1 61-8.74632029E-06 1.81247478E-05-1.12638295E-06 2.61755080E-06-4.40769810E-06
 1 62 2.73290219E-06-1.76144820E-05-4.33267249E-07-2.81996929E-08-6.06165409E-06
 1 63 1.84963954E-05-1.81310790E-04 1.13645146E-06 1.94501491E-05 7.18583016E-06
 1 64 5.80390873E-06 5.65962236E-05-3.88379939E-06 1.66546671E-05-8.40552268E-06
 1 65 1.86956481E-07 4.74113003E-05 6.73815157E-06 5.45023847E-06 1.32436747E-06
 1 66 4.64481472E-06-5.56455496E-05-8.13926096E-06-8.75429557E-06 4.74190618E-07
 1 67 4.20752889E-06 1.16123961E-05 9.01942745E-07 2.14709904E-06-8.84187862E-07
 1 68-2.84618933E-04-2.60607764E-04 6.02601205E-05-1.06839289E-04 2.88166180E-05
 1 69-2.91786373E-04-2.39399142E-04-2.94438040E-05-1.20200828E-04 2.14849761E-05
 1 70-2.13559031E-04-1.07934597E-04-4.61415873E-06-2.39051503E-05 9.00407055E-05
 2  1 2.88631672E-04-1.02996268E-04 3.09900132E-04-1.98677470E-06-4.55770023E-05
 2  2 1.01586755E-04-9.07160531E-05 8.60556424E-04-1.35172525E-04 8.83728096E-06
 2  3 5.34505074E-05-6.22877884E-05 5.72565657E-06 2.03372098E-05-1.13927223E-04
 2  4 1.00146108E+00 2.21470859E-03-6.97543840E-03-2.63709426E-04 1.27338083E-03
 2  5 1.28413147E-03 2.70825447E-04-1.27322025E-03-1.23447450E-03-2.19115452E-04
 2  6 1.17191251E-04 1.01924200E-04-5.55754645E-05-4.37371531E-05 1.01069406E-04
 2  7-1.45856549E-05-2.88602235E-05 1.98643613E-04-1.14443294E-05 4.38190808E-06
 2  8-1.45305812E-05 1.09838265E-04-9.96671885E-05 2.05254510E-04-1.67486560E-06
 2  9 2.97636870E-06-1.30150310E-06 3.63398166E-07 2.21908656E-06-1.22003817E-05
 2 10-4.48220697E-05-8.19657378E-05-3.01677935E-04 5.16162784E-07 2.50928849E-05
 2 11 1.44891941E-05-7.58690395E-04-5.52295755E-04-2.21040148E-04-3.29456928E-05
 2 12 1.88918770E-05 1.40538159E-05 3.98462632E-05-1.22390074E-05 1.16033977E-05
 2 13-1.99008959E-05-3.47460865E-05-4.09930788E-05-9.87252236E-06-2.47929669E-05
 2 14-1.05742582E-05-5.53028019E-04 4.77678126E-05 1.80997665E-04 1.43144498E-05
 2 15 2.45493951E-05-3.88638448E-05-4.10744482E-05-3.28353273E-05 6.20884689E-06
 2 16-1.61523747E-04-3.00571070E-04 2.37500764E-03 1.72736443E-05 8.21351441E-05
 2 17-2.41580043E-05 4.92737761E-04 6.82492162E-04 1.37396583E-03 3.61290446E-06
 2 18-1.72536357E-04 1.68923453E-04 4.82004117E-05-1.51284188E-06-2.00576553E-04
 2 19 5.70209103E-05 9.84272798E-05-6.25948789E-04-6.40138209E-06 1.55773087E-05
 2 20 1.11056373E-05-3.24247237E-04 3.69982566E-05 1.02044149E-04-1.95816549E-05
 2 21 1.80917234E-06 1.77724826E-05 2.15902917E-05 2.04075661E-05-9.23292945E-06
 2 22-4.38722199E-06-5.55283267E-06 1.39279777E-04 8.01466174E-07-1.29506427E-05
 2 23 2.90808337E-06 2.78569728E-05-4.63797592E-05 6.43490884E-06-7.63799256E-06
 2 24 5.07658170E-06 2.56141086E-06-2.27991239E-06 2.60004727E-06-4.68763632E-06
 2 25-6.85997279E-06-1.29951388E-05-5.01333252E-06-2.24403206E-08 6.49451697E-06
 2 26-3.98572845E-06-1.68498548E-06-3.61653300E-05-1.99027700E-05-9.31221025E-06
 2 27-8.00693301E-06 1.73191433E-05 5.09345750E-06-1.48929111E-05 3.12836968E-06
 2 28 6.78262984E-05 1.21581195E-04-1.14359430E-03-9.55458487E-06-5.19858319E-05
 2 29-3.64303214E-05 1.14369109E-03 6.81441985E-04 4.66611457E-04-3.02847804E-05
 2 30 4.17134262E-05-1.14286458E-05-3.53230977E-05 3.98504212E-05 8.72887635E-06
 2 31 1.95255759E-04 1.95598063E-04 2.14270717E-03-8.28530781E-06 7.54916475E-05
 2 32 6.90750558E-05 4.17467472E-04-2.28820257E-03-2.53003739E-03 2.30864964E-04
 2 33-1.12331977E-04-1.18532988E-04 1.12281410E-04 1.22290336E-04-6.60884157E-04
 2 34-1.72508387E-05-3.41745251E-05-3.09614780E-04 1.15751786E-05 2.02142979E-05
 2 35 8.81670465E-06-3.26080731E-04-3.07652669E-04 2.22333283E-04-1.00524689E-05
 2 36 2.37343728E-05-1.36819040E-05 1.60637740E-05 7.16059065E-06 2.26243677E-05
 2 37 1.51718859E-05 3.35972717E-05-1.93727235E-04-2.72612110E-06-2.07616725E-05
 2 38 3.27491224E-05-4.32189002E-04-2.14878981E-04-3.11193986E-04 2.45996213E-05
 2 39 1.36804403E-05-3.82800615E-05 3.89002580E-05-1.30174310E-05-1.85452708E-05
 2 40 7.91182784E-06 1.40697747E-05 2.59998411E-04-4.94731710E-06-1.01606720E-05
 2 41-5.75202271E-06-7.08828170E-05 2.10413573E-05-1.36841906E-05-2.85336615E-06
 2 42 5.97517943E-06-3.12181328E-06-7.73999508E-06-4.38119884E-07-7.18675343E-07
 2 43-1.82573073E-06-4.91767255E-06 3.11391082E-04 3.07814085E-06 1.89041715E-06
 2 44 5.88207843E-06-1.36605723E-04-8.22637202E-05-7.92393814E-05-1.07885336E-05
 2 45 1.04046136E-05 3.83920040E-07-4.51508959E-06-1.36417518E-05-4.62251632E-06
 2 46 2.29512539E-06 4.45942015E-06 2.46055851E-05-4.64109877E-06-1.93485646E-06
 2 47-1.66757756E-06 4.63764433E-05 7.86113562E-06-4.35584879E-05-4.19356669E-06
 2 48 3.90966521E-07 3.80260017E-06-2.21944153E-06-2.20610064E-06-5.41002885E-06
 2 49-7.13109854E-06-1.03005672E-05 6.96219442E-04-9.29438100E-06 8.36029794E-05
 2 50-2.08278378E-05-8.32496283E-06 1.50516696E-04-1.06982129E-04 1.69049789E-05
 2 51 4.14059186E-05-5.83108975E-05-5.58512357E-06 5.44635944E-06 1.57046883E-05
 2 52 2.73516005E-05 1.59403894E-04 2.66296613E-05 3.83126020E-05 5.23985645E-06
 2 53 4.97330936E-05-1.65129576E-04 3.34326971E-05-2.58729289E-05 1.01123810E-05
 2 54 7.36214420E-05 3.23951587E-05 3.54496442E-05-1.56638381E-05 1.23019662E-05
 2 55-5.42442676E-05 2.37139124E-04-2.20526685E-05-2.96416541E-06-8.11652667E-05
 2 56 3.41404899E-05-2.39595486E-05 7.83970640E-06 3.94189170E-06 4.87335077E-06
 2 57 4.20238436E-06-7.39792418E-05-2.59610753E-06 2.76732341E-07-2.68734847E-06
 2 58-1.00075405E-05-1.01383754E-05-5.55952606E-06-5.08271701E-06-2.60729822E-06
 2 59-5.11458144E-06-1.95599503E-05-2.21276553E-06 7.82773946E-06-2.44105001E-06
 2 60 5.40973155E-05 7.92538490E-05-5.92842137E-06 3.70603093E-06 1.42749401E-05
 2 61 1.15066206E-05 1.58114581E-05-6.70938534E-08-4.07566828E-06 3.95029995E-06
 2 62-1.47574621E-05 3.14971466E-05 4.65548555E-06 1.25927460E-06 2.21443540E-06
 2 63-5.62424907E-05-1.84670675E-04 7.96586449E-06 1.10318213E-05 1.03243104E-05
 2 64-1.60525615E-05-2.04207888E-04 6.63041321E-06-2.78622235E-06 9.57218726E-06
 2 65-8.39290744E-06 4.57228274E-07 1.73880839E-06-5.03881018E-06-1.48732391E-06
 2 66-1.72657730E-05 9.50690124E-06 3.23512808E-06 3.12740280E-06 1.52668827E-06
 2 67-3.02292427E-06-9.65465017E-06-3.18093360E-06 2.47567003E-07 2.24698957E-06
 2 68-1.00724899E-04-1.73867139E-04 4.08274585E-05-3.76003717E-05 4.19889525E-05
 2 69-1.07492346E-04-1.57638507E-04-3.29992359E-05-4.90575040E-05 3.60078249E-05
 2 70-2.70689456E-05 1.48551262E-05 2.57871301E-06-4.96899844E-06-1.49695538E-05
 3  1 2.80980526E-05 4.76171460E-05-3.48861989E-04 9.64515378E-06-2.62840741E-05
 3  2 2.61182595E-06-4.01547620E-05 7.21129361E-05 1.12577396E-04 6.62890502E-06
 3  3-3.76846209E-06-2.86044293E-06-5.62856805E-06-3.57088404E-08 2.54518531E-06
 3  4-1.50781680E-05-2.81935649E-05 1.60352749E-04-1.25335024E-05 1.02623283E-05
 3  5 3.51119554E-06 6.58923009E-05-6.87379328E-05 2.72880198E-05 3.17305185E-06
 3  6-5.37657426E-06 2.20352241E-06 5.69370138E-07 6.27157262E-07 2.72092595E-06
 3  7 1.00201233E+00 3.53492020E-03-9.33933342E-03-1.37457999E-03-7.49948797E-04
 3  8-6.88002580E-04 1.85959878E-03 1.96301460E-03-6.90288941E-04-6.57764025E-05
 3  9-2.42472843E-04 3.08249246E-04 6.40648364E-05 9.55067252E-05 4.11658388E-05
 3 10-9.15712205E-05-2.05911142E-04 3.80084248E-03 6.36224253E-06 2.84830611E-04
 3 11-1.64060112E-05 8.25579303E-05 2.22000474E-03-1.17780629E-03 5.44704938E-05
 3 12-8.89939485E-05 3.45234548E-05-1.11354883E-04 1.53196731E-05 7.79164222E-05
 3 13-2.14022246E-04-4.00600214E-04 1.15053112E-03-1.19283741E-04-1.41992866E-04
 3 14-3.27554197E-06-6.02120972E-05 4.36519333E-04 5.55618478E-04-2.99884175E-05
 3 15 5.98283134E-05-2.98398960E-05-7.78448420E-05 4.48214193E-05-2.62187609E-05
 3 16 3.03780798E-05 2.58291547E-05-1.35614658E-03 6.82789107E-05-3.77395564E-05
 3 17-4.88931098E-05 6.61994051E-04 1.25089764E-04 1.82800146E-04-2.97433287E-05
 3 18 1.55748357E-06 2.81858451E-05 7.15014042E-05 2.09156017E-05-4.65098310E-05
 3 19 1.71045268E-04 2.89145289E-04-1.72808500E-03 6.66877040E-06 1.71172268E-05
 3 20 4.97536385E-05-1.05096749E-03-4.13774508E-04-5.15795641E-05-4.18860613E-05
 3 21 6.98008191E-05-2.79147577E-05-9.63410984E-05 3.29049049E-05 4.16950112E-05
 3 22-1.53774203E-04-2.94853299E-04 4.44585748E-04-1.92917409E-04-3.97757450E-05
 3 23 2.85410518E-05 4.59453033E-04-4.46600053E-04-1.17163717E-04-8.93749452E-06
 3 24 1.44506582E-05-5.51316370E-06-8.12664359E-05-3.38028695E-05 4.85952228E-05
 3 25 2.84517919E-05 5.58540314E-06 2.35867525E-03 2.75052168E-04-1.10786435E-04
 3 26-8.13834424E-05 4.61515127E-04-8.99213647E-04-3.52018716E-04-1.84648728E-04
 3 27 1.19392681E-04 6.52560466E-05 9.82688133E-05 1.59084180E-04-3.95739000E-05
 3 28 6.15772958E-05 1.11687893E-04-1.38334972E-04-9.24183298E-07-1.81213985E-05
 3 29 2.28535712E-05 4.63664057E-04 2.77993088E-04-6.44866823E-04-2.32408692E-05
 3 30 1.08196703E-06 2.21589022E-05 4.01442787E-05-3.47220922E-05-1.28224611E-05
 3 31-1.32043633E-04-2.35207218E-04 1.05922374E-03 2.00637019E-05-5.11292191E-05
 3 32 4.69150164E-06-3.65464536E-04 7.60339644E-04 1.39632296E-04-4.64844287E-05
 3 33 2.58202293E-05 2.06641993E-05-5.24057957E-05 1.50912264E-05-6.07389995E-05
 3 34 7.08319252E-06 1.92036447E-05 4.85341762E-04-2.60051302E-05 8.17104705E-07
 3 35-1.43447459E-05 7.84279587E-05-4.91087697E-05-1.45747067E-04 1.58934893E-05
 3 36 2.59249338E-06-1.84859827E-05 2.35676183E-05 1.57381212E-05 1.98129695E-05
 3 37 2.76418520E-05 4.62496799E-05-6.51898493E-04 8.12072346E-06 9.48186346E-06
 3 38-9.66468224E-06 3.07007153E-04 1.13227532E-04-3.53261217E-04-2.77377777E-06
 3 39 1.83505066E-05-1.55767288E-05-1.34267166E-05 1.95742328E-05 9.91928769E-07
 3 40 8.47697260E-06 1.15844996E-05-2.75690526E-04 2.11324599E-05 6.43344601E-06
 3 41-1.64535080E-06 7.91902648E-06 5.15031237E-05 1.54535451E-04-7.74587899E-06
 3 42 4.75610516E-06 2.98977383E-06-1.67736326E-05-1.23180487E-06-4.23509337E-06
 3 43-6.80412390E-07-5.60695372E-07 2.56068989E-05-5.36516452E-06-4.55087429E-06
 3 44-8.88570861E-06 2.95652353E-05 4.35089515E-05 1.70131892E-04 3.08082564E-06
 3 45-5.03093258E-06 1.95010695E-06-3.34399396E-07-1.62827095E-06 8.35369390E-07
 3 46 1.39360827E-06 2.65635684E-06-8.25340755E-06-2.48621021E-06-1.27415664E-07
 3 47 1.06901749E-05-2.98632611E-05-4.10183179E-05 1.03558904E-04-2.90422565E-06
 3 48 3.89187046E-07 2.51503861E-06-5.22440964E-07-2.55976994E-06-2.59425211E-06
 3 49-9.08180163E-06-1.05570486E-05 1.58451502E-04-8.56125850E-06 3.19233500E-05
 3 50-2.80564142E-06 5.42526400E-05 3.49409328E-05-1.70984674E-04-1.29658281E-05
 3 51 1.20348033E-05 9.31024827E-07 2.75925072E-06-6.83878637E-06-3.30177027E-05
 3 52-2.06394142E-04 1.61217688E-04 1.49384855E-05-8.81706248E-05 1.53427760E-05
 3 53-7.70419782E-05 1.06185773E-04 3.66582065E-08-1.39633613E-05-1.89121934E-05
 3 54-7.26450490E-05 1.24832438E-04-4.68293767E-05-1.20105804E-04 4.20025968E-06
 3 55 8.16622446E-05 1.49307474E-04 1.32694521E-05-6.11880428E-05-8.53525353E-06
 3 56 2.51787274E-04 4.70080885E-05 4.08279807E-05 2.53732180E-05-1.87226960E-05
 3 57 8.39440001E-06-3.41790037E-04 3.45294498E-05 7.05841757E-06 6.20219197E-07
 3 58-1.02324982E-04-1.08079016E-04-1.19511941E-04 2.44844903E-05 1.09174208E-05
 3 59-2.61900001E-06 3.83264549E-04-1.13713612E-05 6.40515653E-06-9.84548720E-06
 3 60 7.73510649E-05 5.18183852E-07-1.48341267E-04-3.74593463E-05-7.26743343E-04
 3 61-2.38677925E-04 1.58333378E-05-1.07020502E-05 9.79906917E-05 1.46713508E-05
 3 62-2.70447564E-04-1.01989159E-04 2.88097692E-05 5.17150962E-05 3.41748331E-05
 3 63 4.56549521E-05-2.63444145E-05-1.17092678E-05 7.30230582E-07-1.02896128E-05
 3 64 1.77659556E-05-9.58883570E-05-1.14988407E-05-1.47665979E-06 6.66379933E-06
 3 65-4.77969211E-06-3.91533620E-05 8.80648890E-07-3.45626408E-06-3.35810413E-06
 3 66 8.21267711E-06 2.37961393E-05 2.92381824E-06-3.04388138E-07-3.14071959E-06
 3 67 5.18211973E-06 2.12434858E-06 4.52966887E-07 2.48964903E-06-6.22869018E-06
 3 68-3.48178064E-05-1.25103854E-05-1.58235225E-06 7.21364409E-06 1.49949726E-06
 3 69-4.17075545E-06-3.93286667E-05-6.91510753E-06 1.14695987E-06 8.26870567E-06
 3 70 1.47596799E-05 6.40181007E-05-5.59420910E-06 1.31006348E-06 2.21553605E-06
 4  1 9.38850800E-05 5.16751573E-04-1.06219060E-03 1.24333850E-05-4.60322567E-05
 4  2-2.46182699E-04-1.23806352E-04 4.34711728E-04 1.22179220E-03 2.13653762E-04
 4  3-9.69077346E-07-2.12684684E-04 3.06310879E-05 4.16443072E-05 8.50561561E-05
 4  4-2.20746884E-04 4.98553192E-04-1.50506225E-03-5.91442862E-05 2.84032404E-04
 4  5 3.77328371E-04 7.27489530E-05-2.55783538E-04-9.65474423E-04-5.74787730E-05
 4  6 7.88187384E-05-2.13399654E-05-4.79703134E-05-4.13404242E-05 3.05501058E-04
 4  7-1.07081037E-04-1.89480745E-04 1.02234793E-03-1.07228058E-05 2.87213558E-05
 4  8-1.74949049E-06 2.47006847E-04-7.88696064E-04-5.18877631E-05-4.29880733E-05
 4  9 3.38407655E-05 9.14730778E-06-7.81705682E-06 1.49443247E-05-2.00496914E-05
 4 10-1.30359118E-04-1.94100909E-04 6.05826581E-04 1.91668734E-05 7.35073423E-05
 4 11-1.06048290E-05 8.37515829E-04-1.90207645E-03 5.75763817E-04 7.35402728E-05
 4 12-3.36311374E-05-3.99091354E-05-1.48064350E-04-3.78375917E-05 1.35016704E-06
 4 13 3.04635429E-05 6.13581105E-05-1.17500340E-03-8.08163632E-05 3.64286485E-05
 4 14 1.53212966E-05 6.76519645E-04-5.82415908E-05-6.86715811E-04-6.37855107E-05
 4 15 7.29688904E-05-9.18337969E-06 1.17229763E-04 1.43082035E-06-1.85491381E-05
 4 16 2.71832235E-03 4.90210774E-04-1.61268454E-03-3.88526766E-05-1.85083115E-04
 4 17 7.21977613E-05-5.39989229E-04-1.61448688E-03-9.13690564E-04-2.75894523E-05
 4 18-2.66223004E-06 3.02516824E-05-1.83052423E-05 3.04407157E-05 3.08661814E-05
 4 19-1.25514665E-04-2.07700048E-04 1.56549901E-03 3.62724383E-05-3.61320425E-05
 4 20-1.64999174E-05 6.12172430E-04-4.41891146E-05-2.95728637E-04 4.48739359E-05
 4 21 7.46960970E-06-5.23435456E-05-4.77882950E-05-3.38181342E-05 2.01430658E-05
 4 22 1.88065985E-05 2.85344412E-05-5.49891041E-04-1.03138628E-05 2.42488063E-05
 4 23-7.40021601E-06-1.29156008E-04 2.42293358E-04-5.21799816E-05 1.50522816E-05
 4 24 6.98207483E-08-1.51221023E-05-1.58019659E-06-1.60255189E-05 1.20278329E-05
 4 25-7.28137033E-05-1.18616480E-04 6.54190590E-04-6.56260259E-06 1.89070432E-05
 4 26-1.58448246E-05 2.75112275E-04-4.04347654E-04-6.32146428E-05 1.99012170E-05
 4 27 2.41093354E-06-2.23121506E-05-2.31710250E-05-1.99991082E-05 4.70275354E-06
 4 28-2.77372680E-04-4.51137012E-04 1.38359459E-03 5.47216516E-05 1.06976407E-04
 4 29-2.47729194E-05-2.25799946E-03-1.66154467E-03-4.29112590E-04-4.45637175E-07
 4 30 9.00903988E-05-8.96447616E-05 1.11451893E-04 2.98103733E-05-2.72022523E-05
 4 31 1.00199908E+00 3.94229603E-03-5.06763544E-03-2.15900545E-05-5.63994275E-04
 4 32 6.87652209E-04 4.73117210E-04-2.72643241E-03-4.19288727E-05-8.04858531E-04
 4 33 1.86045797E-04 6.18812734E-04-1.54737041E-04-2.11432145E-04 4.23895551E-04
 4 34-5.94247430E-05-9.14155456E-05-4.49055813E-05 1.46295317E-05 5.41558599E-05
 4 35 1.81147220E-05-4.62772798E-04-2.18907238E-04-6.69396629E-04-8.50796653E-05
 4 36-2.97660018E-05 1.14845667E-04-2.80007998E-05-6.02829429E-05-7.44115566E-05
 4 37-3.17123416E-05-5.19393078E-05 1.01298888E-03-2.23600827E-05-2.96876842E-05
 4 38-1.04127215E-05 4.76729791E-04 4.91329231E-04 7.25093874E-04-2.83458272E-05
 4 39-4.01588900E-05 6.85047172E-05-3.34643149E-05-6.72133344E-06 7.81383036E-06
 4 40-4.76758435E-05-7.53350075E-05 6.90993231E-04-2.47741519E-05-2.80181187E-05
 4 41 5.78358275E-06-6.58826245E-04-2.87946707E-04-1.65318242E-04 4.00997041E-05
 4 42-2.99358676E-05-1.01638366E-05 4.86070253E-05 1.95645287E-05 3.35571385E-06
 4 43-1.94104594E-05-3.03846411E-05-2.96792717E-04 1.28348756E-05 7.86478921E-06
 4 44-6.43449839E-07 2.74729000E-04 7.26520548E-05 2.41246619E-04 1.09025614E-05
 4 45-1.20102662E-05 1.10770487E-06 2.31950036E-05-1.69185254E-08 8.75063574E-06
 4 46-1.41985622E-05-2.41886339E-05-6.83062633E-05 1.40362203E-05 7.05811830E-07
 4 47-1.54808267E-05 1.89838539E-05 2.02456860E-05 3.42815014E-04 6.03888352E-06
 4 48-2.12510150E-06-3.91378202E-06 8.96585281E-06 4.02949436E-06-5.41988142E-06
 4 49-1.05643529E-04 1.21588415E-05 2.52376640E-04-1.48465475E-05 1.23740419E-04
 4 50-5.57135422E-05 5.34030799E-06 1.14495725E-05-4.34890182E-04-1.01217838E-05
 4 51 2.62215337E-05-1.60997499E-05 3.99791864E-06 4.04812817E-05-2.29793780E-04
 4 52-9.18770708E-05-4.47632307E-04-2.79765796E-05 1.35786962E-04 2.46056514E-06
 4 53-5.32001473E-05 5.48641048E-04 2.17909935E-06 1.72170579E-05 1.74675609E-05
 4 54-4.04874093E-05-2.78389388E-04-8.81556080E-05 3.74759476E-05-8.19720585E-07
 4 55 2.98665152E-05-1.25847188E-05 1.57687072E-05-5.80743592E-05 6.72422082E-05
 4 56-4.20416349E-05 2.93450491E-05-9.75846251E-06-1.03361862E-05-1.05181346E-05
 4 57-5.87803292E-05 6.97474300E-05-1.16808975E-05-4.06737843E-06 1.41117973E-05
 4 58 3.79955134E-05-2.77872169E-05 1.25374369E-06-2.53825869E-06 6.47457421E-06
 4 59 1.13095324E-05 6.04923542E-05 1.26481240E-05-2.07126484E-05 1.23545925E-05
 4 60-1.06003004E-04 1.18480794E-04-7.71059479E-06 4.68322167E-06-2.29316514E-05
 4 61 1.15579787E-05 7.50855357E-05-6.65170666E-06 1.31762044E-06 5.19428903E-06
 4 62-6.37062761E-05 8.36822540E-05-6.26959205E-06 4.49529906E-06-1.49134809E-05
 4 63-1.01953556E-04 1.14676016E-04 8.90668989E-06 1.13566115E-05 7.10659024E-05
 4 64 3.51148871E-05 2.81785945E-04-1.39071068E-06-2.09276018E-05-2.70259030E-05
 4 65 2.75339933E-06 1.39018273E-04 2.14130968E-05 3.78882211E-06-2.78577165E-06
 4 66 1.33801754E-05 3.56409618E-05-1.35667270E-05 1.23710786E-07-9.98032762E-06
 4 67-1.28264340E-05-7.44830412E-06-1.11871449E-06-2.24157715E-06-5.89698472E-06
 4 68-7.66647681E-05-4.20855021E-05-1.63547467E-05 5.28928082E-06 4.16135795E-05
 4 69-6.05657660E-05-1.22042786E-04 7.47044125E-06 2.70321706E-06 4.20821831E-05
 4 70 9.94915339E-05 6.97263487E-05-2.52388986E-06 7.09345385E-06 1.85754900E-05
 5  1 2.28669921E-04 6.18972503E-04-1.31662627E-03 4.46482808E-05-3.36132012E-04
 5  2 3.77168515E-05-1.84108364E-04 1.10251680E-03 3.61993510E-04 2.11014279E-04
 5  3-2.41063072E-04 3.00487936E-05 6.54034551E-05 2.00842686E-06 1.16106992E-04
 5  4 1.24856135E-05 1.72850710E-05-2.00590859E-04-8.93513393E-06 1.50096406E-05
 5  5-2.53098545E-06 1.42426964E-05 2.65773140E-04-1.74069088E-04-3.46433817E-05
 5  6 4.04587080E-05-5.81532637E-06-1.14336473E-05-4.59073548E-06 1.05900553E-05
 5  7 4.48751720E-05 7.88548718E-05-5.41816102E-04 5.82808381E-07 8.53199631E-06
 5  8 1.48834757E-05-4.88842265E-05 2.62735815E-04-2.22293813E-04 1.45586568E-05
 5  9-2.44965620E-05 9.93790527E-06 1.15082904E-06-5.75532046E-07 2.10836672E-05
 5 10 1.52924871E-05-5.56226645E-06 7.52590566E-04 1.58468198E-05-3.98559184E-05
 5 11-8.60096193E-06 5.66401661E-04 7.58112460E-04-5.16257583E-05 1.11991368E-05
 5 12 5.20937228E-05-6.32928595E-05-2.64513156E-05 2.61820288E-06-3.38769367E-05
 5 13-3.81466650E-05-6.16512509E-05 6.69521600E-04 2.52398269E-05 8.39016378E-06
 5 14-1.36008769E-05 6.78862848E-05-7.70288629E-05 3.28910516E-04 1.99319077E-05
 5 15-4.99039720E-06-1.49415105E-05-2.75569659E-05 8.69562097E-06-5.23349167E-06
 5 16 6.69638352E-05 1.42550608E-05 7.49399486E-04-2.64504994E-05-1.00962661E-06
 5 17 8.80273701E-05-1.21820967E-04-1.50630964E-03-9.84900672E-04-1.83872162E-05
 5 18-3.47415942E-05 5.31288104E-05 9.94976183E-06 1.02236698E-06-3.52137725E-05
 5 19 1.18447379E-05 1.83102372E-05-2.39524484E-04-1.38173097E-05 8.18365382E-06
 5 20 6.61065935E-06-8.01087836E-05 7.89685198E-05-3.32943185E-05-1.88314131E-06
 5 21-3.56761129E-06 5.45075261E-06 9.66911354E-06 2.21564140E-06-1.33555626E-06
 5 22-7.47669829E-06-1.21634421E-05 5.61777049E-05-4.83587447E-06-3.59584778E-06
 5 23 4.19963251E-06 6.28772592E-05 8.38522437E-07-4.48140625E-05-8.23244329E-07
 5 24-1.83284219E-06 2.65608651E-06-1.05435069E-06-1.66459042E-06-4.85619805E-06
 5 25 2.15749691E-05 2.87797006E-05-6.74538218E-05 1.56012048E-05-9.99750220E-06
 5 26-5.46286477E-06-6.68577187E-06 9.65085378E-06 8.15075566E-05 8.76439096E-06
 5 27 5.12206425E-06-1.38864552E-05-7.38373665E-06 8.34221901E-06 5.02456573E-07
 5 28-4.72870958E-05-7.60574398E-05 8.25866025E-04 1.54119867E-05 5.38899443E-06
 5 29 1.41385782E-05-8.67929124E-04-3.31416670E-04 4.53085915E-04 3.12491031E-05
 5 30-1.20308022E-05-1.92183009E-05 5.63856554E-06-2.75756139E-05-3.10247693E-05
 5 31 5.57145527E-05-5.79642661E-05-5.09379754E-05 3.05640428E-06 4.89321135E-05
 5 32 5.23164057E-05 3.11698649E-05-2.18687376E-03 1.58702192E-03-1.28237411E-04
 5 33 5.00618944E-05 7.81755163E-05-1.50184811E-05 6.81730962E-06-2.71719537E-04
 5 34 2.14251463E-05 2.93138647E-05 2.09044438E-04-1.44398929E-05-1.84483364E-05
 5 35-1.28114286E-05 6.64572204E-04 3.56576621E-04 3.22653313E-04 1.61926279E-05
 5 36-9.58945100E-06-6.60317694E-06 1.45465676E-05-6.14416420E-06-6.22127682E-06
 5 37-2.68298035E-05-4.18418747E-05 6.38263540E-04 8.38976468E-07 1.85023987E-06
 5 38-1.51597959E-05 7.98877361E-05 2.57055635E-05 3.71123286E-04 2.62694663E-06
 5 39-5.01527250E-06 2.38832588E-06-7.10206316E-06 1.07137035E-05-1.09463000E-06
 5 40 1.40574140E-05 2.19014408E-05-6.37877128E-04 7.19900542E-06 7.66438027E-06
 5 41 8.61076101E-06 4.10555368E-04 1.92455640E-04-1.09225030E-05-1.04048813E-05
 5 42 7.74993018E-06 2.65495108E-06-1.30765240E-05-6.35459282E-07 3.35677253E-06
 5 43 1.07897515E-05 1.70291573E-05-4.60175217E-04 2.64066334E-06 5.15302339E-06
 5 44-2.25206773E-06 8.81542029E-05 4.07809210E-05-1.59288025E-04 2.24604310E-07
 5 45 2.11093504E-06-2.33553935E-06-5.41148558E-06 8.62447940E-07-2.14617359E-06
 5 46-4.27515826E-06-6.84117208E-06 1.10519162E-04 2.27742957E-06 2.63024603E-06
 5 47 2.72335112E-06-1.23411382E-04-5.66373030E-05-2.15708320E-04 1.12969594E-06
 5 48-5.46370422E-06 4.33400829E-06 5.15298864E-06 1.27950799E-06 1.25003690E-06
 5 49 1.00220227E+00 4.41126899E-03-7.72891292E-03-1.15778881E-04 9.60882376E-04
 5 50-3.38394360E-04-9.53118647E-05 1.17954161E-04 8.21053702E-04-8.33275142E-06
 5 51-5.83439401E-07 8.91619082E-06-2.34327841E-06-7.40885364E-06 3.21899621E-05
 5 52 4.64368674E-05-1.68602628E-04-9.70771185E-07-5.02399237E-05 2.55203984E-07
 5 53-5.24565204E-05-2.37037972E-04-1.00673728E-05-2.95864416E-07-1.08174395E-05
 5 54 2.21074587E-05 1.05814872E-04-2.04475351E-06 2.99514801E-06 2.47822481E-06
 5 55-2.18835911E-04-2.89200822E-04 2.15046505E-06-1.22285615E-05-1.54136032E-05