 $SYSTEM MWORDS=6800 MEMDDI=1012 $END
 $CONTRL MAXIT=200 SCFTYP=RHF RUNTYP=ENERGY ISPHER=1 UNITS=ANGS
  EXETYP=RUN COORD=UNIQUE ICHARG=0                   $END
 $BASIS gbasis=CCD                                   $END
 $SCF DIRSCF=.TRUE.                                  $END
 $SCF DIIS=.TRUE.                                    $END
 $SCF SOSCF=.FALSE.                                  $END
 $STATPT NSTEP=1000                                  $END
 $GUESS GUESS=MOREAD                                 $END
 $ELMOM IEMOM=0                                      $END
 $DATA
 indigo HF/CCD local minima geometry
C1
O     8.0     1.17097294    -2.33947420     0.00464140
O     8.0    -1.17135298     2.33984542    -0.00402707
N     7.0     1.48915899     1.12550020     0.01300046
N     7.0    -1.48895669    -1.12516689    -0.00786454
C     6.0     0.66687566     0.00860731     0.00527446
C     6.0    -0.66686958    -0.00817496    -0.00118506
C     6.0     2.91317677    -0.65465933     0.00279959
C     6.0    -2.91326284     0.65472430    -0.00338800
C     6.0     2.80871367     0.73975921     0.00570015
C     6.0    -2.80859971    -0.73968941    -0.00368358
C     6.0     1.55120420    -1.20321071     0.00438155
C     6.0    -1.55140257     1.20352697    -0.00298077
C     6.0     4.15158939    -1.28455830    -0.00196049
C     6.0    -4.15180969     1.28434992    -0.00227007
C     6.0     3.95137334     1.53512859     0.00341899
C     6.0    -3.95114040    -1.53521502    -0.00159825
C     6.0     5.29350996    -0.50528717    -0.00440875
C     6.0    -5.29363537     0.50495833    -0.00038452
C     6.0     5.17703247     0.89010382    -0.00178800
C     6.0    -5.17691469    -0.89042032     0.00026716
H     1.0     1.13977957     2.05871725    -0.00494438
H     1.0    -1.13943291    -2.05840993     0.00857397
H     1.0     4.20518923    -2.36454463    -0.00429648
H     1.0    -4.20547676     2.36434627    -0.00250331
H     1.0     3.88661027     2.61400270     0.00578676
H     1.0    -3.88622499    -2.61407971    -0.00146172
H     1.0     6.27205896    -0.96338999    -0.00852693
H     1.0    -6.27229834     0.96279824     0.00092050
H     1.0     6.07821083     1.48994982    -0.00376737
H     1.0    -6.07797909    -1.49043751     0.00217429
 $END
--- CLOSED SHELL ORBITALS --- GENERATED AT Wed Jun 24 03:16:34 2015
 indigo HF/CCD local minima geometry
E(RHF)=     -870.4298153951, E(NUC)= 1385.4866388393,   13 ITERS
 $VEC
 1  1 1.56867981E-02 4.04080878E-05-1.56858752E-04 1.60738420E-05 2.05255686E-05
 1  2 1.15926344E-07-4.96069896E-05 1.88375751E-05-1.30633786E-07-3.08459544E-07
 1  3 6.49803349E-06-6.18957395E-06-4.60779832E-08 5.15063394E-08 6.70362163E-08
 1  4 1.00136575E+00 2.24479539E-03-7.18599730E-03-5.28600574E-04-1.72570681E-03
 1  5 1.59226379E-06 4.74437838E-04 1.47442209E-03-2.09242526E-06 3.91067465E-05
 1  6 2.15828332E-04-2.54935079E-04 6.15363767E-05 2.60298567E-07-5.44154418E-07
 1  7 1.13015630E-05 1.98644343E-05 1.74713154E-05-4.01163896E-06-7.59640893E-06
 1  8 2.01610469E-07-1.76552375E-04 1.10051557E-05-8.00033599E-07-2.88975983E-05
 1  9 1.72514617E-05 1.16461366E-05 9.29228056E-06 2.58996706E-07-1.19062073E-07
 1 10-1.08476689E-05-2.41842623E-05-3.04910034E-04 3.06724980E-06-2.82110610E-05
 1 11-1.26056793E-07 3.33460887E-05 6.25111133E-05-1.63126539E-06 6.24790575E-05
 1 12-5.04189706E-05-1.20600869E-05 2.62011799E-05 5.52359845E-07 6.42961035E-07
 1 13-9.56135913E-05-1.78944434E-04 2.28433762E-03 8.86304831E-05 4.19574234E-05
 1 14 7.96525850E-07-5.00788233E-04-8.53828997E-04-6.94448001E-06-6.09513146E-05
 1 15 2.80525337E-05 3.28987809E-05-4.80558439E-05-5.59272463E-07 1.08819615E-07
 1 16-2.90004038E-05-5.20688946E-05 1.45121394E-03 4.73130118E-05-2.92814547E-05
 1 17 5.15054202E-07-2.98493083E-03 5.70438343E-04-6.43282565E-06 3.26428969E-04
 1 18-2.53208053E-04-7.32209156E-05-7.79145776E-05 7.91151386E-07 4.18497475E-07
 1 19-2.76833928E-05-4.49634413E-05 7.21021975E-04-4.29136221E-06-2.01795911E-06
 1 20-1.72383205E-07-2.03069605E-04 3.06321206E-04 1.21916877E-06 1.48171137E-05
 1 21 6.98677908E-06-2.18038927E-05 4.57272673E-06-8.55060332E-08 1.49916482E-07
 1 22-1.04502241E-04-1.63690511E-04 4.27597354E-03-1.44134532E-05 1.48560874E-05
 1 23 3.08883914E-07 3.31351489E-03-1.89793631E-03 5.25527069E-07 3.20915179E-04
 1 24-1.71146639E-04-1.49768540E-04-3.07791844E-04 4.56655074E-07-7.15601934E-08
 1 25 8.47880863E-06 1.57350098E-05-3.45016470E-04-8.28341372E-07 6.06512540E-06
 1 26 6.42348346E-08-4.27106786E-04 3.07698933E-04 2.51741476E-06 2.40138805E-05
 1 27-1.99895184E-05-4.02436201E-06-1.22970491E-05-3.94019880E-07 1.57824556E-08
 1 28 3.33951917E-05 5.32968282E-05-2.01565947E-03-2.50980283E-05-3.46717464E-05
 1 29 3.89184324E-08-7.77430713E-04-1.44559492E-03-6.34694007E-07 1.96711058E-05
 1 30-1.78733412E-05-1.79776467E-06-1.18830035E-04 3.76518932E-09-3.79251663E-07
 1 31 3.23386665E-05 4.85808675E-05-9.14324827E-04 2.59132447E-05-1.56432381E-05
 1 32 1.78327616E-07 1.19994711E-04-5.40420699E-04-1.08378029E-07-1.46507126E-05
 1 33-1.07055644E-05 2.53562770E-05 3.39104497E-06 2.32089441E-07 3.35433254E-07
 1 34 5.11879530E-04 7.50637108E-04-2.95121810E-03-2.31298622E-05-1.22401000E-04
 1 35 6.50867197E-08 2.11538121E-03 5.56550270E-03-1.98526410E-06 3.39976049E-04
 1 36-7.35374861E-04 3.95398812E-04-5.47078837E-04 5.48838001E-07 8.41885695E-07
 1 37-4.01578457E-06-7.81227666E-06 1.00930672E-04-6.41969380E-07-5.34842718E-06
 1 38 4.47126539E-08 5.16913441E-05-3.23704977E-06-3.87942648E-07-2.60619668E-06
 1 39 2.66615847E-07 2.33958083E-06 7.33839024E-06 4.07743129E-08-5.25407546E-08
 1 40-9.64025592E-05-1.85583842E-04 2.04437678E-03-8.11868063E-05 6.97705562E-05
 1 41 2.77118101E-07 1.88023127E-04-3.17257294E-04-1.26892175E-06-6.09917759E-05
 1 42 2.34833591E-05 3.75084169E-05 1.42720609E-04 1.83099925E-07-1.85743525E-07
 1 43-5.30962875E-06-8.70874124E-06 2.09419625E-04-8.08596210E-06 2.49199044E-06
 1 44 1.72749065E-07 2.87769365E-05-2.52546944E-04-1.18518911E-06-1.98307396E-06
 1 45 5.10889877E-06-3.12582481E-06 7.27105214E-06 6.61504448E-10-2.88191633E-08
 1 46 1.87223620E-05 3.54052845E-05-5.60156981E-04 3.15798231E-05 9.12990839E-06
 1 47-8.24179863E-08-3.63931651E-04 1.59340418E-05 1.25012072E-06 3.29953235E-05
 1 48-3.00547357E-05-2.94058785E-06 1.86806487E-05-9.31934988E-08-3.82853208E-08
 1 49-3.57301940E-06-6.41716114E-06 1.05972382E-05 4.24162282E-06 7.16918661E-07
 1 50-3.51485692E-09-9.67762676E-06 7.42409658E-05 1.40052424E-07 7.30565836E-07
 1 51 1.20092995E-06-1.93149579E-06-1.06976875E-06-3.28379994E-08-1.93348762E-08
 1 52-9.28800540E-06-1.99683944E-05-4.68797183E-04-3.67008967E-05-2.48937200E-05
 1 53 4.63095358E-08-1.39068681E-04-7.71075796E-05 7.38511195E-07-1.79212422E-05
 1 54 1.43879994E-05 3.53324287E-06-1.07842488E-05 6.06672346E-08 9.47948804E-08
 1 55-2.90951142E-06-5.11236448E-06-1.58920639E-04 5.54386831E-06-3.37068888E-07
 1 56-4.08354188E-08 2.34924289E-05 2.91644402E-05 2.47599816E-07 5.07215884E-06
 1 57-5.38854996E-08-5.01827334E-06 1.91953942E-06-7.36622875E-08 3.88214835E-08
 1 58-1.12712724E-05-1.91019752E-05-2.73286955E-05-1.02623091E-05-2.74208735E-06
 1 59 7.87339439E-08 6.06560557E-05 1.58037932E-04-6.15436147E-07 1.84496034E-05
 1 60-8.53477770E-06-9.91482566E-06 2.05670344E-05-1.04598788E-07-1.66935825E-08
 1 61-1.70750557E-05-1.99937922E-04 2.58837627E-05 2.08506888E-05-3.76265356E-07
 1 62 8.60810082E-05-2.10230049E-05-1.98231096E-05 2.32134466E-05-9.31466648E-07
 1 63 3.94923842E-06-1.42323394E-05-4.66519247E-06-3.64328008E-07 3.90634852E-08
 1 64-1.29417994E-05-1.04761145E-04-2.14988202E-05 1.75990330E-05 1.17944086E-07
 1 65 1.58109991E-05 1.05786174E-04 1.63238812E-06 1.09479411E-06 5.78220327E-08
 1 66 4.33539252E-05 8.48589342E-06-3.25720251E-06 3.65139656E-06-4.44141056E-08
 1 67 4.65758978E-06 1.53555684E-05-7.05006023E-07-3.13446629E-06 4.61723992E-10
 1 68 2.06701133E-05 1.95340845E-05 8.48969020E-06 1.05966452E-06-7.58851470E-08
 1 69 2.33991597E-06-3.43678691E-06 4.99845561E-07 8.26645332E-07-2.97211548E-08
 1 70 5.02576075E-06 3.53221478E-05-5.60574522E-06-1.37349685E-05 5.86482415E-08
 2  1 1.00136566E+00 2.24465724E-03-7.18474595E-03 5.28582816E-04 1.72579517E-03
 2  2-3.35882791E-07-4.73382935E-04-1.47576263E-03 1.10671640E-06 3.91608041E-05
 2  3 2.15682808E-04-2.54843613E-04 6.15856533E-05-3.55451306E-07 8.10521811E-08
 2  4-1.56809505E-02-2.99092536E-05 6.82629532E-05 4.83829485E-07 3.35316228E-05
 2  5-2.07903698E-07 3.47750905E-05-6.50423376E-05 4.90898301E-07-1.53625028E-06
 2  6-2.62122338E-07 1.79837262E-06-1.97394167E-06 5.09022971E-08 5.30751865E-08
 2  7-1.12032886E-05-2.48129930E-05-3.05768128E-04-2.93933237E-06 2.84608969E-05
 2  8 1.58598750E-07-2.78345079E-05-6.28040583E-05 1.68271261E-06 6.34108598E-05
 2  9-5.09760872E-05-1.24347726E-05 2.59063481E-05 4.95717830E-07 6.97154994E-07
 2 10 1.16774902E-05 2.06821813E-05 2.68717622E-05 3.88564932E-06 8.49337410E-06
 2 11-2.27172975E-07 1.76025158E-04-1.29910951E-05 1.01740304E-06-3.09425666E-05
 2 12 1.89094317E-05 1.20331349E-05 8.53798555E-06 2.01621176E-07-2.20331821E-07
 2 13-2.60231198E-05-4.64985091E-05 1.38056079E-03-5.00909649E-05 2.79985975E-05
 2 14-6.26537472E-07 3.00190120E-03-5.44221622E-04 3.74854401E-06 3.28479347E-04
 2 15-2.54192337E-04-7.42870098E-05-7.65469130E-05 1.58832663E-07 3.58892608E-07
 2 16-9.47248068E-05-1.77359852E-04 2.23954620E-03-9.01436686E-05-4.10627110E-05
 2 17-1.05563904E-06 5.94427144E-04 8.36830847E-04 7.72713986E-06-7.11815900E-05
 2 18 3.59452350E-05 3.52363550E-05-4.56908172E-05-5.44204841E-07-6.84064003E-08
 2 19-1.03687809E-04-1.62368128E-04 4.25508105E-03 1.45650478E-05-1.47973441E-05
 2 20-4.42932905E-07-3.30850739E-03 1.88953927E-03 9.74392544E-06 3.20486061E-04
 2 21-1.71337091E-04-1.49148971E-04-3.08178739E-04-1.15325004E-06 5.66706950E-07
 2 22-2.44126122E-05-3.98389336E-05 5.87133750E-04 4.74451955E-06 1.55112362E-06
 2 23 1.70131066E-07 9.92521572E-05-2.47036214E-04-9.76208080E-09 4.75922032E-06
 2 24 1.23622115E-05-1.71214318E-05 1.42193869E-05-2.59525510E-10 8.41049013E-08
 2 25 3.31174952E-05 5.27843786E-05-2.00554016E-03 2.51389464E-05 3.45188082E-05
 2 26-7.68587953E-08 7.91202610E-04 1.43608836E-03 1.86429143E-06 1.89241315E-05
 2 27-1.72216927E-05-1.70243883E-06-1.18493871E-04-3.71553891E-07-2.37320105E-07
 2 28 7.44060122E-06 1.40909010E-05-2.81595416E-04 1.65196776E-06-4.99649832E-06
 2 29 1.25971232E-08 4.52175968E-04-2.62593354E-04-1.58009780E-06 2.34834196E-05
 2 30-1.94745680E-05-4.00885162E-06-8.59096507E-06-2.98426036E-07 1.51969444E-08
 2 31 5.11117285E-04 7.49493817E-04-2.92382744E-03 2.23441853E-05 1.22916087E-04
 2 32 1.43570867E-07-2.12133962E-03-5.55097363E-03-1.89154265E-06 3.40431789E-04
 2 33-7.35188811E-04 3.94757021E-04-5.47625635E-04 5.35119750E-08 1.69480155E-07
 2 34 1.63194872E-05 2.50900421E-05-8.22319075E-04-2.52067446E-05 1.94862148E-05
 2 35-1.82620087E-07-1.86695563E-04 3.66254249E-04-1.33012974E-06-2.53114757E-05
 2 36 1.23290066E-05 1.29824691E-05 2.05399177E-05 6.20738126E-08 4.03031247E-07
 2 37-9.63189254E-05-1.85421473E-04 2.04232059E-03 8.12119397E-05-6.96475538E-05
 2 38-5.34157676E-07-1.89504164E-04 3.17829279E-04 2.03266571E-06-6.08720509E-05
 2 39 2.34188052E-05 3.74532457E-05 1.42565103E-04 7.16792673E-07-5.08017602E-07
 2 40-1.00921219E-06-2.02102970E-06 3.70874316E-05 3.18536462E-06 3.16820324E-06
 2 41-6.45183820E-08-5.76184265E-05 1.30695348E-05 2.49559688E-07-6.98671596E-07
 2 42-4.56495670E-07 1.15516727E-06 2.86860351E-06 4.29082987E-10-1.82700438E-08
 2 43 1.88906057E-05 3.56805832E-05-5.66902057E-04-3.13369754E-05-9.20466671E-06
 2 44 1.41975944E-07 3.62952427E-04-8.01469654E-06-1.80978370E-06 3.30751699E-05
 2 45-3.02367059E-05-2.83846405E-06 1.84428351E-05-1.61216355E-07-1.36336139E-07
 2 46-5.89237654E-06-9.81324129E-06 2.27003713E-04 7.10096254E-06-2.78119808E-06
 2 47-1.42007821E-07-1.74258795E-05 2.52175380E-04 6.65019803E-07-3.01784655E-06
 2 48 6.03994390E-06-3.02209735E-06 6.68415594E-06 1.12859078E-08-1.76365427E-08
 2 49-9.17938220E-06-1.97747449E-05-4.69522762E-04 3.65963160E-05 2.48797017E-05
 2 50-6.62955308E-08 1.39534539E-04 7.49220332E-05-7.49535263E-07-1.79351855E-05
 2 51 1.43426482E-05 3.59253733E-06-1.07665662E-05 8.09191092E-08 1.35256934E-07
 2 52-3.27800419E-06-5.78587642E-06 2.50737103E-05-3.09526413E-06 6.27068882E-08
 2 53-4.07196297E-09 1.39339490E-05-7.18134449E-05 3.23606263E-08 1.28642826E-06
 2 54 7.51433128E-07-2.03786138E-06-7.27636991E-07-2.93780842E-08-2.92379566E-08
 2 55-1.11909925E-05-1.89597924E-05-2.22105839E-05 1.00950726E-05 2.74848221E-06
 2 56-7.14488257E-08-6.15761967E-05-1.58934639E-04 3.30290126E-07 1.83073788E-05
 2 57-8.54002650E-06-9.76735228E-06 2.05017639E-05-1.17964039E-07-3.44532492E-08
 2 58-2.57302150E-06-4.54196141E-06-1.57943287E-04-5.22962516E-06 4.21930439E-07
 2 59 3.09325138E-08-2.52779648E-05-3.40671625E-05-2.27548310E-07 4.50789029E-06
 2 60 2.15435379E-07-4.72332567E-06 1.28363303E-06-5.65239462E-08 3.34165178E-08
 2 61 8.66462489E-05-1.47434102E-05 1.90120658E-05-2.38734961E-05 1.09452741E-06
 2 62-1.98551657E-05-1.99510364E-04-2.51918892E-05-2.16259579E-05 3.86223886E-07
 2 63-1.30279628E-05-1.04255820E-04 2.16475425E-05-1.75845297E-05-1.91292879E-07
 2 64 4.35737518E-06-1.09338326E-05 5.34125856E-06-1.79633003E-07-3.26667149E-08
 2 65 4.28671697E-05 5.14506726E-06 3.21705964E-06-3.69037815E-06 2.88403621E-08
 2 66 1.44737531E-05 1.05590843E-04-1.53666341E-06-1.20335838E-06-6.97027324E-08
 2 67 2.05260161E-05 1.90725446E-05-8.46612179E-06-9.68824329E-07 7.89905078E-08
 2 68 4.01288988E-06 1.47217183E-05 4.44804271E-07 3.10129576E-06-5.94982113E-09
 2 69 4.95656561E-06 3.54615941E-05 5.59596268E-06 1.37127485E-05-3.36069235E-08
 2 70 2.18220648E-06-4.50722838E-06-3.30452790E-07-4.00535193E-07 3.06926787E-08
 3  1 1.38151471E-05 2.15927263E-05-4.07390633E-04-1.10964614E-05-3.39199006E-05
 3  2-3.54881530E-08 7.88223088E-05-1.39883065E-04 4.07007584E-07 1.75710226E-05
 3  3-1.48902921E-05-2.68073044E-06 9.83052886E-06-1.09675747E-07 2.45006570E-07
 3  4 1.26116698E-05 1.96745922E-05-3.05438504E-04 1.41748523E-05 2.03320314E-05
 3  5 1.00974111E-07-1.08979736E-04 1.57146744E-04-7.52930805E-07 1.42759059E-05
 3  6-1.47219001E-05 4.45994160E-07 1.15228013E-05-1.33824441E-07 2.04924483E-07
 3  7 8.37296242E-01 3.61512068E-03-1.15817256E-02 7.61592735E-05-2.83426128E-04
 3  8-3.83960934E-05-5.99635682E-04 2.66037361E-03 3.60689755E-05-1.55094691E-04
 3  9 2.06412186E-04-5.13174946E-05-1.84278156E-04 2.26904028E-06-6.55970378E-06
 3 10 5.51060825E-01 2.42919485E-03-8.07102479E-03-4.54932550E-05 1.92104712E-04
 3 11 2.09415281E-05 1.26636054E-04-1.82114498E-03-1.85193574E-05-1.18667086E-04
 3 12 1.55317861E-04-3.66507751E-05-1.23614022E-04 1.24438461E-06-3.90822399E-06
 3 13 2.94693079E-04 4.66306912E-04 7.97086182E-04 1.21980579E-04 1.15121904E-04
 3 14 3.98698665E-07 2.01693758E-03 5.33152549E-03 1.83714827E-05-7.80803812E-07
 3 15-4.39274680E-05 4.47082718E-05-2.53648348E-04-8.08695125E-07-2.67432285E-06
 3 16 1.97605831E-04 3.15217988E-04 1.56888899E-03-9.66119633E-05-7.27577056E-05
 3 17-2.86328891E-07-3.31105155E-04-5.00746965E-03-8.20838671E-06 8.03886944E-06
 3 18-4.92496423E-06-3.11390521E-06-2.38946293E-04-3.31219911E-07-1.57456172E-06
 3 19-5.27872347E-05-9.07607884E-05 6.21611761E-04-1.03784481E-05-2.30136132E-05
 3 20-1.07947811E-07 3.75834955E-03-1.13009907E-03-1.09517304E-05 8.83917276E-05
 3 21-7.85613890E-06-8.05355887E-05 3.81875005E-06-1.19476752E-06 5.11592612E-07
 3 22-3.22230417E-05-5.73971162E-05 4.27285320E-05-4.29969505E-06 9.16749870E-06
 3 23-6.73844572E-08-2.38569573E-03 8.29640027E-04 2.37105522E-06 4.95985197E-05
 3 24 8.97801308E-09-4.96074977E-05-4.28902552E-06-4.88714077E-07 6.74468610E-08
 3 25 2.34153631E-04 3.55153954E-04 1.83468944E-03-1.25101650E-04 1.98837321E-05
 3 26-2.53361499E-07-5.03305081E-03-4.41843813E-04 1.63027403E-05-1.92782231E-04
 3 27 1.24497392E-04 6.82848397E-05 1.25122510E-04 2.06669410E-06-6.31820408E-07
 3 28 1.39418888E-04 2.09934596E-04 1.38055987E-03 8.77983753E-05-1.41856550E-05
 3 29 3.66999674E-07 3.19095310E-03 4.67277949E-04-6.07024061E-06-1.14291995E-04
 3 30 7.84161596E-05 3.58758357E-05 8.33720538E-05 7.93695169E-07-5.17678479E-07
 3 31-1.15762455E-04-1.96157953E-04 3.70618464E-03 2.69631268E-05-6.06053016E-05
 3 32-1.06982813E-06-9.07459455E-04 7.11636837E-04 1.68273841E-06 8.27918260E-05
 3 33 3.26931473E-05-1.15484973E-04 7.37167400E-05 3.25967253E-07 4.82653388E-07
 3 34-1.10708235E-04-1.91285707E-04 3.51434249E-03-1.34625419E-05 4.98901568E-05
 3 35 7.93991554E-07 9.05240947E-04-8.94149757E-04 1.49043920E-07 6.23145546E-05
 3 36 2.18312537E-05-8.41458082E-05 6.34216232E-05 2.80203486E-07 2.70514132E-07
 3 37 3.07300631E-05 4.04717383E-05-3.34114728E-03 7.89310576E-05-4.64941780E-05
 3 38-1.17392696E-07 8.35051819E-04-1.01495880E-03-5.08667144E-06-2.13934267E-05
 3 39-1.08409301E-05 3.22343568E-05 3.02742853E-06 1.31980076E-07-1.36756022E-07
 3 40 1.45133176E-05 1.70345115E-05-2.09961880E-03-5.36934964E-05 2.72268787E-05
 3 41-4.41306536E-08-4.07511514E-04 6.21971030E-04 1.61186296E-07-1.44358954E-05
 3 42-1.71571382E-06 1.61516092E-05-5.84792898E-06-5.71791221E-08 8.71882778E-08
 3 43-6.19044242E-05-1.02439218E-04 3.25725403E-03-1.82350107E-05 1.42277678E-05
 3 44 4.78733900E-07 1.08149676E-04-1.64085207E-03-5.27595368E-06-1.44682624E-04
 3 45 2.22666658E-04-7.79840341E-05 3.86061124E-06 4.53295549E-07 8.27704928E-07
 3 46-3.66321535E-05-6.14789332E-05 2.02028045E-03 7.65081907E-06-9.41560323E-06
 3 47-2.55070315E-07-8.95061996E-06 9.74155991E-04 1.09175138E-06-9.39500065E-05
 3 48 1.38286139E-04-4.43361321E-05 1.16434921E-06 2.21389425E-07 5.49069352E-08
 3 49-4.59746103E-05-7.58910049E-05 1.07407477E-03-1.46073674E-06-3.79291351E-05
 3 50-3.69523542E-08-6.76314064E-04 3.71696667E-04 2.72310295E-06 2.23295154E-05
 3 51 2.05605661E-05-4.28900814E-05 2.48823289E-06-2.91294748E-07-3.42474582E-08
 3 52-3.08289707E-05-5.11311154E-05 7.07521566E-04 3.34370973E-06 2.62779472E-05
 3 53-2.31885942E-08 4.35736793E-04-1.58432735E-04-2.94234990E-07 1.42897991E-05
 3 54 1.40582257E-05-2.83480248E-05 4.90040020E-06-9.35055700E-08-9.47388757E-08
 3 55 1.08509539E-06-4.15400072E-06-1.61245196E-03 2.73307548E-05 2.36426599E-05
 3 56-1.20465705E-07 4.98344824E-04 1.24947467E-04-5.63838823E-07-1.34307384E-05
 3 57 1.40641926E-05-6.33454140E-07-2.81092544E-05-1.13763334E-07 1.80750746E-07
 3 58-4.51237217E-06-1.14302187E-05-8.81737736E-04-1.50023713E-05-1.69043365E-05
 3 59 1.01517193E-07-2.80707952E-04-5.87954869E-05-2.06020381E-07-6.66882222E-06
 3 60 1.04659327E-05-3.79711049E-06-1.85056288E-05-6.67671150E-08 5.72020310E-08
 3 61-2.29949447E-04-2.96556347E-04-1.39601485E-04 4.15819734E-04-1.35167668E-05
 3 62-1.24773606E-04-2.30399567E-04 9.26457356E-05-2.75472360E-04 7.45159062E-06
 3 63 3.27764440E-05-1.77866641E-04-1.18379276E-05 2.46836891E-05 1.55276358E-07
 3 64 1.24404399E-05-8.94209645E-05 2.64769254E-06-1.51008192E-05-6.67047100E-09
 3 65-6.67608822E-05 4.05828456E-04-2.62531814E-05 1.05853972E-04 4.37834098E-07
 3 66-4.77122730E-05 2.46264418E-04 1.51508865E-05-6.34780124E-05-1.19313839E-07
 3 67 2.65121579E-05 1.66842953E-04 2.52686256E-05-4.80576748E-06-8.27393745E-08
 3 68 1.24655053E-05 9.91781247E-05-1.58641019E-05-4.99371606E-07 1.41607592E-09
 3 69 5.08984347E-05-2.54076371E-05-2.11662601E-05-1.46192387E-05-3.84589436E-08
 3 70 2.86046256E-05-6.04879024E-06 1.23041586E-05 9.44989923E-06 4.01098846E-08
 4  1-1.80977020E-07-3.83948807E-07 1.73641661E-04-1.00755823E-05 2.73554206E-05
 4  2-8.43822540E-08 9.26443398E-05-7.25683615E-05-5.78378370E-07-4.72140405E-06
 4  3-2.63356096E-06 7.35496501E-06 6.31396782E-06-1.99919920E-07-1.77195081E-07
 4  4 5.63238517E-06 8.89397284E-06-3.20629890E-04-4.86399059E-06 3.85465634E-05
 4  5-1.57476041E-07 5.38224786E-05-1.13211666E-05-3.83482221E-07 1.12770852E-05
 4  6-3.46338232E-06-7.81370286E-06-1.90587072E-06 1.80159540E-07 2.08675481E-07
 4  7-5.50961413E-01-2.25251271E-03 6.48751289E-03-6.21093050E-05 1.72643585E-04
 4  8 2.57088716E-05 1.07406736E-03-1.57290584E-03-2.17415083E-05 6.00251941E-05
 4  9-8.65597031E-05 2.65345090E-05 1.15313247E-04-1.78525768E-06 4.35526393E-06
 4 10 8.37230770E-01 3.49876848E-03-1.05399243E-02-8.72965981E-05 2.70800047E-04
 4 11 3.25040317E-05 1.22411407E-03-2.49687336E-03-2.52193525E-05-1.16406106E-04
 4 12 1.61063876E-04-4.46577698E-05-1.78776277E-04 2.29929855E-06-5.97472260E-06
 4 13-1.84535739E-04-2.85545599E-04 2.10687935E-03-3.87595608E-05-8.33292947E-05
 4 14-3.86092973E-07-3.83957551E-03 2.80992951E-04-1.47730400E-05 2.18778253E-05
 4 15 8.97557415E-05-1.11633567E-04-1.49624429E-05 1.36540781E-06 1.23905375E-06
 4 16 2.86028234E-04 4.46643065E-04-1.61898573E-03-8.38368103E-05-1.22056666E-04
 4 17-2.94175026E-07-4.32357779E-03-1.85116738E-03-2.20066609E-05-2.03285528E-05
 4 18-9.98789743E-05 1.20207527E-04-8.64834218E-05-1.23693601E-06-1.76428810E-06
 4 19 4.11036656E-05 6.56221318E-05-1.33403916E-03 3.49514545E-05 3.02716220E-05
 4 20 3.31244633E-07-2.69525213E-03 5.24835560E-04 4.49659483E-06-7.98696047E-05
 4 21 1.82496323E-05 6.16199724E-05-1.96215511E-05 9.79799434E-07-5.08752955E-07
 4 22-5.86409517E-05-9.61793692E-05 1.47087617E-03 3.62053056E-05 3.69195046E-05
 4 23 3.92710460E-07-3.96167825E-03 9.29058421E-04-2.57035099E-07 1.08361595E-04
 4 24-1.98764927E-05-8.84851023E-05 1.95400829E-05-9.74304489E-07 3.92991401E-07
 4 25-1.91195983E-04-2.93875187E-04-7.70003496E-04 6.85534027E-05-1.03200988E-05
 4 26-2.03738843E-07 3.62073850E-03-1.53683824E-04-1.07145796E-05 1.58640179E-04
 4 27-9.08335701E-05-6.78066085E-05-7.95778835E-05-1.50650447E-06-2.26365346E-08
 4 28 2.68200768E-04 4.10350688E-04 1.43306536E-03 1.12450099E-04-1.73331390E-05
 4 29 9.45492789E-08 5.31674494E-03 3.54046591E-05-7.75076837E-06-2.21986977E-04
 4 30 1.32703608E-04 8.92833694E-05 1.22486503E-04 1.27130402E-06-2.24033138E-07
 4 31-1.10770098E-05-2.81055857E-05 2.79326628E-04-2.86082452E-05 1.46284275E-05
 4 32-1.36388174E-07-1.82140879E-04 6.08684758E-04 4.27123889E-06-3.46706691E-05
 4 33-2.07363867E-05 5.54070558E-05-1.09260072E-05-6.95363184E-07-3.09218419E-07
 4 34-3.55933093E-05-5.17383567E-05 1.20870383E-03-3.69695877E-05 3.73829539E-05
 4 35 8.53192199E-08 1.92135368E-04 2.77615667E-04 2.78836141E-06 6.45363513E-05
 4 36 3.20276707E-05-9.65640220E-05 3.91651129E-05 9.64464343E-07 2.55733724E-07
 4 37-3.45904731E-05-5.07884607E-05 2.44858761E-03-4.75345127E-05 3.91312084E-05
 4 38 3.41750858E-08-9.08804007E-04 7.83253446E-04 5.79529742E-06 1.32186374E-05
 4 39 2.07441119E-05-3.39627493E-05-2.17898636E-05-2.72228504E-07 3.44241478E-07
 4 40 4.38935774E-05 6.26022263E-05-3.57015266E-03-7.48870166E-05 5.43444003E-05
 4 41-1.49638318E-07-1.16544005E-03 1.12007150E-03 2.45288821E-06-2.06502111E-05
 4 42-2.32716216E-05 4.39218328E-05 2.11910822E-05 7.93322022E-08-8.07499398E-08
 4 43 5.11298767E-05 8.24333441E-05-2.45658085E-03 2.30498623E-05-9.21856788E-06
 4 44-1.98453732E-07-2.28585071E-04 1.34747488E-03 3.20952814E-06 9.84084737E-05
 4 45-1.67390835E-04 6.89823616E-05-5.92647219E-06-1.30994661E-07-5.81096808E-07
 4 46-7.14683889E-05-1.16267200E-04 3.54537997E-03 2.84065839E-05-1.40885595E-05
 4 47-2.47976325E-07-2.52594679E-04 1.88677966E-03 4.74670381E-07-1.47599575E-04
 4 48 2.41818179E-04-9.42186043E-05 6.91180448E-06 1.44641684E-07 1.74147229E-08
 4 49 2.87953145E-05 4.69231018E-05-7.04593066E-04-5.08793242E-06 2.16174714E-05
 4 50 4.46707653E-08 4.68573080E-04-4.62325513E-04-2.75462438E-06-1.57042464E-05
 4 51-1.22091621E-05 2.79134085E-05 6.59549826E-06 2.28526354E-07 7.41137281E-09
 4 52-4.46369207E-05-7.31224213E-05 1.07172961E-03-4.11022050E-06 3.48472150E-05
 4 53-1.34135249E-08 6.97887677E-04-5.71719334E-04-1.05254051E-06 2.32629016E-05
 4 54 1.93501310E-05-4.26130326E-05-5.06258501E-06-1.71209130E-07-1.48494760E-07
 4 55-1.39069009E-05-1.92172988E-05 1.51465557E-03-2.55386707E-05-1.21539896E-05
 4 56 2.78776175E-08-4.47315722E-04-1.41572423E-04 1.42487796E-06 1.42881473E-05
 4 57-6.17882239E-06-8.10932490E-06 1.84773443E-05-4.26154726E-08-8.85087222E-08
 4 58 1.31978449E-05 1.59990906E-05-2.02895251E-03-3.42702602E-05-2.05137282E-05
 4 59 6.64278292E-08-6.07881419E-04-1.79753529E-04 9.81246488E-07-1.84234172E-05
 4 60 1.12289291E-05 7.19448814E-06-2.80933811E-05 1.33335950E-08 9.93443962E-08
 4 61 2.18446530E-04 1.06109593E-04 8.99498854E-05-2.68915993E-04 1.00600377E-05
 4 62-2.91524792E-04-2.14722659E-04 1.37852903E-04-4.11365038E-04 1.28710733E-05
 4 63-4.46300345E-05 1.86671531E-04 2.07945492E-05-1.90891402E-05-2.34564803E-07
 4 64 5.39658563E-05-2.41599768E-04 2.37783010E-05-2.72585259E-05-1.69132289E-07
 4 65 3.43810011E-05-3.19791733E-04 2.26740415E-05-8.52946623E-05-2.08145430E-07
 4 66-5.79968377E-05 4.54283589E-04 3.12228344E-05-1.20204610E-04-4.57457254E-08
 4 67-3.00679086E-05-1.36649906E-04-1.85472973E-05 1.24210090E-05 1.18128237E-07
 4 68 3.81167612E-05 1.91533327E-04-2.70243933E-05 1.33180638E-05 5.46681314E-08
 4 69-4.58586493E-05 4.36698455E-05 1.80306034E-05 1.00482326E-05-5.63134392E-08
 4 70 6.22451913E-05-5.01756485E-05 2.49299762E-05 1.50182512E-05-3.43101598E-08
 5  1 1.26003394E-06 1.07882484E-04-5.11420819E-04 2.22227997E-05 3.53452142E-05
 5  2-2.66432214E-08-1.10014829E-04-1.75288428E-04 2.57842966E-07-1.29121354E-05
 5  3 1.60062918E-05-3.09415633E-06 6.25673299E-06 3.54983613E-08 4.46056895E-08
 5  4-2.19233009E-05 7.81220820E-04-3.19184118E-03-1.15861871E-04-2.89145934E-04
 5  5 7.70208424E-07 2.36409302E-04 9.66915237E-04-3.81554270E-06-1.13147713E-04
 5  6 1.38544616E-04-2.53969028E-05 1.37180680E-04-1.79993872E-07 4.84972849E-08
 5  7 4.55988117E-05 6.44356730E-05-7.34070094E-04 8.43149555E-06 1.21613605E-05
 5  8 6.49618090E-07 2.30011834E-04 4.77325295E-04 1.01447990E-06-1.01839410E-05
 5  9-3.49605579E-05 4.51444990E-05-5.10055772E-05 2.08016897E-07-7.41830830E-07
 5 10 1.20673403E-04 2.08865544E-04-1.79314875E-03-3.43206021E-05 2.88122160E-05
 5 11-6.24667249E-07-1.71982024E-04-1.50707168E-03 3.09294007E-06-2.92826163E-05
 5 12 5.27421114E-05-2.34594951E-05-7.02871303E-05 3.74308529E-07-1.77073518E-06
 5 13 7.93348274E-04-1.56662735E-04 7.02616393E-03-6.95017128E-05-2.82555954E-06
 5 14-1.18955012E-06-3.40744092E-03 1.90242513E-04-1.13625141E-05 1.70180101E-04
 5 15-3.29874425E-05-1.37192658E-04 2.11269724E-04 4.34896062E-06 1.94661469E-06
 5 16 6.63228759E-03 1.85121671E-04-7.09795988E-05-5.14866767E-05 1.11524480E-05
 5 17-2.33581666E-07-7.31945039E-03 4.99235949E-05-3.59727916E-05-3.75765024E-04
 5 18 8.47198937E-05 2.91045131E-04 3.76339956E-04-6.88994500E-07 2.62762976E-06
 5 19 4.00060449E-04-8.02486923E-05 4.95101236E-04 1.01445369E-05-2.20861508E-05
 5 20-4.18540172E-07-8.52342335E-04 2.28773302E-04 3.36370882E-06-2.97155586E-05
 5 21 2.53498762E-05 4.36568233E-06 4.69092922E-05 3.90706154E-08 6.06310502E-08
 5 22 3.38214946E-03-1.37524042E-04 3.14761315E-03-3.66213570E-05 5.35905603E-05
 5 23-9.04033127E-08 5.36607588E-03 1.43839568E-03-1.39781509E-06-4.13551916E-04
 5 24 1.08998223E-04 3.04553692E-04 1.46942760E-04-7.00392885E-07 3.80006942E-08
 5 25-3.56526352E-05-4.64293936E-05-4.91478533E-04 1.38562749E-05 1.98015679E-05
 5 26 1.87722861E-08-1.27908567E-03-5.41001545E-04 2.17345538E-06 5.02402141E-05
 5 27-2.72627749E-05-2.29774393E-05 2.17449105E-05-2.88925670E-07-3.44047857E-07
 5 28-6.33224656E-05-3.66234583E-05 1.09436108E-03 1.13257053E-04-6.77473065E-05
 5 29-4.40691302E-07-1.41598222E-03 6.39317828E-04-2.28277173E-06 8.42013823E-05
 5 30-9.57034290E-07-8.32443480E-05 6.21929391E-05-1.14260095E-06-1.66127800E-07
 5 31 1.29382588E-01 5.66869536E-04-1.09577227E-03-3.38980906E-05-3.18656092E-05
 5 32 2.69988621E-07-3.51566339E-04-7.83975668E-04-2.35459420E-09-8.67228007E-05
 5 33 1.62826862E-04-7.61040613E-05 5.42666594E-05 1.71069868E-07 2.23006022E-07
 5 34 9.93848956E-01 4.42519900E-03-1.25592898E-02 2.79150729E-04 2.99397301E-04
 5 35-6.71740267E-07 3.41973127E-03 6.01669733E-03 4.68460834E-06-2.46295980E-04
 5 36 8.72214036E-04-6.25918056E-04 4.87363906E-04 2.48223912E-07-2.01264852E-06
 5 37-2.23491156E-05-3.07126483E-05 6.17431618E-04-2.67644142E-05 2.26679187E-06
 5 38 1.99946933E-07-1.51350501E-04 2.27979899E-04 3.57752159E-07 1.18821732E-05
 5 39 1.07021506E-05-2.25843238E-05-1.27752742E-05-1.46844320E-07 1.35016012E-07
 5 40-9.68788429E-05-9.82446127E-05 3.62519129E-03 1.17129096E-04-3.60398556E-05
 5 41-4.16323237E-07-1.12535145E-04-1.97589091E-03 2.22639216E-07 1.76508063E-05
 5 42 1.33153334E-04-1.50804141E-04-1.12902708E-04-5.94122627E-07 4.08279992E-07
 5 43-3.98059443E-05-7.08627361E-05 1.12983842E-03-1.69281536E-05 6.56179349E-06
 5 44 3.66718966E-07-4.12399243E-04-5.98743902E-04-4.72291623E-07 2.47548655E-06
 5 45 1.41346309E-05-1.66101174E-05 4.84270618E-06-1.39425455E-07-6.12245917E-08
 5 46 6.82690984E-06-1.12694058E-05-1.38817095E-03-1.75038501E-05-2.84848383E-05
 5 47-2.30393401E-07 2.84548205E-04-6.84390302E-04 1.99842609E-06-1.77080616E-05
 5 48-2.42265051E-06 2.01307121E-05-1.06704111E-05 2.29705632E-07 2.28719228E-08
 5 49-1.56193983E-05-2.74244981E-05 7.64282556E-05 1.11632321E-05 7.32875744E-06
 5 50-3.98089950E-08-4.24122414E-06 8.14387456E-05 2.08269287E-07 7.05006614E-06
 5 51 6.02952286E-07-7.65301842E-06-2.37867576E-06-9.83677672E-08-3.99604133E-08
 5 52 3.41408703E-05 4.39332935E-05-2.01987412E-03-2.46101647E-05-3.87312033E-06
 5 53-6.18439774E-09-9.07494098E-04 1.45682174E-05 1.74164815E-06 1.40282057E-06
 5 54-3.49634627E-05 3.35606421E-05 4.16995304E-07 6.77518879E-08-4.11541660E-08
 5 55-1.49390587E-05-2.53242472E-05-1.50459226E-04 1.71363727E-05-1.02839308E-05
 5 56-1.43890898E-07 3.09669296E-05 1.55615904E-04 6.77444357E-07 5.35195717E-06
 5 57 5.87270603E-06-1.12246632E-05 2.07921367E-06-1.55249401E-07 6.66867582E-08
 5 58-6.59080443E-05-1.01017918E-04 1.41740231E-03-1.57738813E-05 9.17856027E-06
 5 59 9.25197988E-08 7.84576183E-04 2.92139445E-04-2.46011314E-06 2.16464151E-05
 5 60 3.81832538E-05-5.98296690E-05 1.89857687E-06-2.18048248E-07 1.99516053E-09