 $SYSTEM MWORDS=14000 MEMDDI=1879 $END
 $CONTRL MAXIT=200 SCFTYP=RHF RUNTYP=ENERGY ISPHER=1 UNITS=ANGS
  EXETYP=RUN COORD=UNIQUE ICHARG=0                   $END
 $BASIS gbasis=CCD                                   $END
 $SCF DIRSCF=.TRUE.                                  $END
 $SCF DIIS=.TRUE.                                    $END
 $SCF SOSCF=.FALSE.                                  $END
 $STATPT NSTEP=1000                                  $END
 $GUESS GUESS=MOREAD                                 $END
 $ELMOM IEMOM=0                                      $END
 $DATA
 morphine HF/CCD local minima geometry
C1
O     8.0    -1.98654509    -0.51998377     1.10995460
O     8.0    -2.60394645    -2.91960430     0.08966921
O     8.0    -3.70474029     1.73602986     0.39964187
N     7.0     3.15146899    -0.02915308     0.43457383
C     6.0     0.36885461    -0.67763633     0.69080758
C     6.0     1.25529885    -1.25237048    -0.42963725
C     6.0     2.30878925    -0.16711606    -0.75306064
C     6.0    -0.90818781    -1.48169410     1.05240798
C     6.0     1.24134898    -0.40776795     1.92870069
C     6.0    -0.25088230     0.57858956     0.14017999
C     6.0     1.69392586     1.16223371    -1.28408861
C     6.0     2.44723201     0.46713620     1.60353160
C     6.0     0.32617036     1.48472798    -0.71660668
C     6.0    -1.24849486    -2.59284019     0.04157813
C     6.0     0.39764991    -1.70666885    -1.58750618
C     6.0    -1.58166468     0.61115271     0.46765921
C     6.0    -0.76574582    -2.29546785    -1.36239147
C     6.0     4.40732002     0.64915544     0.20992024
C     6.0    -0.47984385     2.55375552    -1.11817598
C     6.0    -2.39112973     1.65839767     0.08561157
C     6.0    -1.80011690     2.65024900    -0.69764972
H     1.0     1.82218671    -2.10866308    -0.05297503
H     1.0     2.95840240    -0.55803633    -1.53795016
H     1.0    -0.85669059    -1.91507792     2.04743290
H     1.0     1.59113264    -1.36817682     2.31820011
H     1.0     0.64565831     0.06751803     2.71163034
H     1.0     1.59120762     1.08657861    -2.37027955
H     1.0     2.39759731     1.97861195    -1.11168528
H     1.0     2.12899113     1.51276457     1.48243737
H     1.0     3.13713193     0.45086244     2.44912982
H     1.0    -0.72013456    -3.48808551     0.38079244
H     1.0     0.75390279    -1.56094718    -2.60114789
H     1.0    -1.38956606    -2.65632224    -2.17100048
H     1.0     4.31204271     1.73133194     0.03844637
H     1.0     4.91540670     0.21433985    -0.65223068
H     1.0     5.05324316     0.51213193     1.07898879
H     1.0    -0.08818316     3.31042075    -1.78639615
H     1.0    -2.41795969     3.47864819    -1.01593232
H     1.0    -3.09860396    -2.11215591     0.09845843
H     1.0    -3.92982602     1.02813184     0.98606032
 $END
--- CLOSED SHELL ORBITALS --- GENERATED AT Wed Jun 24 03:19:03 2015
 morphine HF/CCD local minima geometry
E(RHF)=     -933.8890151505, E(NUC)= 1835.2453932533,   13 ITERS
 $VEC
 1  1 1.00162029E+00 2.51578892E-03-8.54875880E-03 1.22934786E-03 3.86922408E-04
 1  2-6.96118798E-04-2.02600058E-03-6.53478391E-04 1.01500597E-03-3.30229506E-05
 1  3-8.76062669E-05 1.20629217E-04 9.18769982E-05 6.54941030E-05 7.96786298E-05
 1  4-1.05859782E-04-1.98144952E-05 9.39391370E-05-1.42196208E-06-1.80457255E-05
 1  5 7.32586135E-06-6.58989035E-05 7.57054360E-05-6.56405068E-05-9.91763506E-07
 1  6-2.31699807E-06 3.30876158E-06-1.94001839E-05-9.93367704E-06-1.29423971E-05
 1  7-3.08563327E-04-6.94284410E-05 1.62789426E-04-2.28143954E-05-2.50350315E-06
 1  8 1.36426661E-05-1.51791699E-04-2.71792150E-05 3.07205515E-05-4.98586942E-05
 1  9 3.15201556E-05 1.83385386E-05-2.83396969E-06 2.83578684E-05-1.82060142E-06
 1 10-3.12027863E-05-5.42680219E-05 3.75471036E-04 3.79465798E-07 4.87257610E-06
 1 11-1.50944147E-05-1.69235409E-04 2.71927270E-05 9.69400137E-05 5.70141966E-06
 1 12-7.16211403E-06 1.46069437E-06-2.92492345E-06 1.34474770E-06 3.75913318E-07
 1 13 5.22876028E-05 6.08727826E-05-7.39621024E-04 5.38161294E-05 3.27290188E-05
 1 14-1.34706197E-05 1.72689970E-03 4.06392761E-04 3.29436477E-04-4.70972264E-05
 1 15-7.87787153E-07 4.78850136E-05-7.49260038E-05 4.53368248E-05 4.98581876E-05
 1 16-2.28416291E-05-4.07331135E-05-1.69024938E-04 2.83012336E-05 5.04676957E-06
 1 17 1.75645819E-06-3.59641810E-04-1.11487815E-05-1.76647403E-04 3.86419353E-05
 1 18 4.86955592E-06-4.35114912E-05-2.73539507E-05-5.33128950E-06-4.49152747E-06
 1 19 5.21532415E-05 9.06737241E-05-4.38592937E-04-1.15044639E-05 9.59131858E-06
 1 20 1.57937961E-05 1.86619147E-04-3.94241145E-04-1.99899297E-04 7.50715846E-07
 1 21 1.55431653E-05-1.62938811E-05 4.21864500E-06 6.16262622E-06 1.35705207E-06
 1 22-1.37643253E-04-1.90511895E-04 3.57476001E-03-3.03288188E-04 2.92136465E-04
 1 23 7.03253689E-05 4.47753970E-05 1.70435369E-03-7.35015392E-04-4.48712393E-05
 1 24 6.92823740E-05-2.44111348E-05 1.26877818E-05-4.05507464E-06-2.48877774E-05
 1 25 6.04369287E-05 1.13071267E-04-4.97144897E-04-2.82957306E-05 5.67718901E-06
 1 26 4.66557568E-06 4.04444375E-04 2.47199473E-04 4.37406108E-04 1.91511230E-05
 1 27 3.54712056E-05-5.46223286E-05-1.58377817E-05-1.26377216E-05-4.93868748E-05
 1 28-7.20340281E-05-1.42844046E-04 8.13614305E-04 1.10588826E-04-1.58969935E-05
 1 29-6.38156321E-05 1.42774483E-03 2.16523524E-03-1.55796699E-03-1.03082058E-04
 1 30 1.26643076E-04-2.35610177E-05-1.51870800E-04 5.26183866E-05-7.95357798E-05
 1 31-1.73766638E-05-2.28975791E-05 6.80267748E-04-3.90494375E-05-5.87406794E-06
 1 32 1.07563922E-05 2.68249505E-05-1.58345464E-04 3.76551950E-04 1.45097760E-05
 1 33-1.49734170E-05 4.63641001E-07 1.77927705E-06-3.18885298E-06 1.16744845E-05
 1 34 4.69156744E-05 7.99997595E-05-5.08766487E-04-1.37845343E-05 2.51643180E-06
 1 35 8.15029604E-06 1.30823146E-04 2.22579068E-04 1.11438587E-04-1.23779120E-05
 1 36 1.83061068E-05-5.92819485E-06-1.57081362E-05 3.12881156E-06-1.05140480E-05
 1 37 3.97761629E-05 6.45743529E-05-2.36869977E-03 6.29164117E-05 1.10357709E-05
 1 38-2.40902799E-05-4.57582988E-05 1.10065637E-03-1.00420691E-03-3.49797469E-05
 1 39 5.53997396E-05-2.04199926E-05-6.29401686E-06 5.21174520E-05-9.02620908E-06
 1 40-1.88640266E-06-2.23170939E-05-1.51019906E-04 1.21876530E-06-8.00441674E-05
 1 41-1.27879291E-04 1.31563694E-04-3.54042261E-04 3.03836836E-04 6.25167912E-05
 1 42-6.19861889E-05-5.30602248E-07-1.26426893E-05-6.95565125E-06-4.09661281E-05
 1 43-4.53128858E-05-7.32234052E-05 7.89237632E-04-2.78540780E-05-2.14652615E-06
 1 44-1.62797946E-05-4.04864178E-04-1.25170238E-04 3.17420946E-04 1.40976545E-05
 1 45-4.51799360E-05 3.10822815E-05-9.63255801E-06-4.63010248E-05 5.36637417E-06
 1 46 2.55668558E-04 4.75840629E-04 1.53500577E-03-7.95937995E-05-2.43646975E-04
 1 47 1.36060065E-04 1.00253495E-03-4.25330167E-03 1.86192617E-03 2.11416619E-04
 1 48-1.08078088E-04-1.03338531E-04-1.89109940E-04 3.55376282E-05 5.14017600E-05
 1 49 1.16446706E-04 2.17531447E-04-7.60242975E-04-1.36356827E-05 2.87921869E-05
 1 50 7.14290454E-05-5.43550032E-04-4.21214781E-04-3.33876197E-04 1.76609976E-05
 1 51-3.45910075E-06-1.42018968E-05-3.35724795E-05-2.15753941E-06-2.83407887E-05
 1 52 1.43141079E-06 2.26497930E-06 2.42189032E-05 7.51559403E-07 1.50416828E-07
 1 53 9.63343076E-08-1.75291881E-05-1.94451749E-05-4.09599898E-05-2.09937025E-06
 1 54 2.24309132E-06-1.43721067E-07 1.80158914E-06 1.42105689E-05 1.61632516E-06
 1 55-2.13040544E-05-3.91551193E-05-1.43679177E-04 1.79528047E-05 1.53937071E-05
 1 56-2.11055078E-05-4.61523304E-04 5.57145980E-05 2.27339597E-04-1.28705918E-05
 1 57 5.52498018E-06 7.34561158E-06 2.65623323E-05-8.78071326E-06-2.98049634E-05
 1 58-1.05973115E-04-1.97003384E-04 3.20872476E-03 6.15655698E-06 3.66217229E-06
 1 59 3.91583766E-06 1.24987458E-03-1.59528367E-04-1.08047243E-04 2.47617251E-04
 1 60-1.91866216E-04-5.57510353E-05-8.71742604E-06-5.30407768E-05 8.05235447E-05
 1 61-2.04993009E-05-3.74741498E-05-1.02565890E-03-7.27984223E-06 3.24684984E-05
 1 62-1.62996795E-05-6.85171352E-05 3.48647385E-05-6.59275554E-05 3.62432075E-05
 1 63-2.17626890E-05-1.44805185E-05 4.46768554E-05-5.12057654E-05-1.40918675E-05
 1 64 6.09158716E-06 8.87230250E-05 2.09276621E-05 3.65579969E-06 1.02995058E-05
 1 65-2.19084597E-05-9.50431440E-05-6.34236235E-06 1.71740947E-05 5.21858986E-06
 1 66-1.86044060E-04 1.65939066E-04 2.35407762E-05-1.12365869E-04 3.85525780E-05
 1 67-1.97110064E-05 8.61577449E-05-3.31973091E-05-2.30954286E-05-1.26482012E-05
 1 68 1.09280566E-04-3.00499695E-04-1.53905152E-05 8.12744618E-06 2.63909481E-06
 1 69-2.12885929E-06 6.83344935E-05 6.97324368E-06 4.45902587E-06-1.07423998E-05
 1 70-6.41530338E-05-2.98278116E-05 7.76658039E-06 5.67230235E-06-1.79753531E-05
 1 71 6.38829298E-06-2.59247847E-05-9.41945478E-06 1.42017625E-06-6.76671646E-06
 1 72 2.21339385E-05-8.77913942E-05 1.37896691E-05-5.12925597E-06-8.85592930E-06
 1 73-3.53263160E-05-4.97130719E-05 1.41832129E-06 2.40962149E-05-5.05707649E-06
 1 74-1.76459069E-05 1.02539443E-04 1.37851350E-05 6.86785941E-06-2.72256712E-05
 1 75-3.28574012E-05-2.49024465E-04 9.82531300E-07 1.58078931E-05 6.77887488E-06
 1 76 5.89713877E-07-6.37613084E-06 3.15089198E-06 2.54157882E-06 1.72938638E-06
 1 77-4.12132247E-07-1.70843493E-05-3.79733541E-07 2.15028419E-06 3.24660182E-06
 1 78-4.14365875E-06 4.06026493E-05-3.97133266E-06-3.79511440E-07 3.37267718E-06
 1 79 1.86235709E-05 7.70221203E-05 1.22046120E-05 4.35880971E-06-1.56124210E-05
 1 80 7.17317269E-05 9.92370745E-05 1.85849779E-05-1.59533895E-05 8.06483894E-06
 1 81-5.53715838E-05-9.94153467E-05-1.81630400E-06 2.04215586E-05 3.23421020E-06
 1 82-2.67235267E-06-1.13984934E-04-1.42736511E-05 7.12287767E-06 1.18249410E-05
 2  1 2.45546400E-04-6.40829572E-05 2.60970694E-04 5.21103298E-06-4.87510184E-05
 2  2 8.63492081E-06-2.52863151E-04 1.04029325E-04 6.78764075E-05 2.60718897E-06
 2  3-2.27350474E-05 2.01278584E-05-2.07159805E-05 2.21762834E-05 3.62557043E-05
 2  4 1.13954688E-05 1.42872391E-05-4.98463527E-05-2.98657200E-06 1.25082507E-06
 2  5 2.75425412E-07-1.29573374E-05-1.83511460E-05 1.29207736E-06 1.43048954E-06
 2  6-1.92960484E-06 4.99115296E-07-3.87404971E-06 1.02018935E-07-1.50546648E-07
 2  7 1.00147415E+00 2.28933765E-03-7.02621271E-03 1.08173651E-03-1.12518432E-03
 2  8 5.17186128E-04-1.98866151E-03 6.25620726E-04 1.31938390E-04-1.48956230E-04
 2  9 8.55565131E-05 6.33997164E-05 6.55214877E-05 7.54774907E-06-7.74917686E-05
 2 10-1.05819974E-05-1.76524323E-05 1.63129739E-04-1.79687457E-06-1.40137885E-06
 2 11-5.07437419E-06-6.29398372E-05 2.87349075E-05 7.54471605E-06 4.70241605E-06
 2 12-5.08496264E-06 3.82546587E-07 4.08661418E-07 1.77600506E-06-3.27399705E-07
 2 13-2.72825925E-05-4.56786903E-05 5.90349593E-04-2.55285619E-05 3.36775446E-05
 2 14-1.19160774E-05-2.57739394E-04 4.60688554E-04-7.27212134E-05-2.57335098E-05
 2 15 2.93430831E-05-3.60957331E-06-3.85486048E-05 2.61352423E-05-2.33793302E-05
 2 16-1.53088685E-05-2.79342128E-05 9.69420677E-05 1.77438437E-05 1.40848507E-06
 2 17-7.58515802E-06-1.13398650E-04-3.54217510E-05 1.12865166E-04 4.10003821E-07
 2 18-7.57153684E-06 7.16153302E-06 1.20660274E-06 2.83515225E-07 3.01795759E-06
 2 19 3.52991692E-05 6.11608967E-05-3.96901337E-04-2.15577201E-06-6.16250513E-06
 2 20 8.88760019E-06 8.66867724E-05-2.43592839E-04-6.06018916E-05 2.08421248E-06
 2 21 1.37496385E-06-3.45917633E-06 8.73454401E-06-5.04856596E-07 4.09460451E-06
 2 22-1.36416800E-05-2.24420169E-05 1.33258174E-04-1.53492960E-05 2.00128549E-05
 2 23 4.72391385E-06 1.43472598E-05 1.29958449E-04-1.14401107E-06 1.19172487E-05
 2 24 6.55847441E-06-1.84757231E-05-1.45779119E-05-2.51545140E-06-1.27684162E-05
 2 25-8.80485770E-06-1.71307736E-05 3.20467666E-05 7.42523864E-06 2.58898581E-06
 2 26 1.33996631E-05 6.59221180E-05-2.70987817E-05-5.82103376E-05-3.24250767E-07
 2 27 3.86993636E-06-3.54568559E-06-6.11193133E-06-2.30461526E-06 1.17666409E-06
 2 28 4.21331204E-05 7.22663682E-05-2.60683387E-03 2.09640525E-05-5.23813144E-05
 2 29 2.32672842E-05 1.49494393E-03 8.90052975E-04-9.93465632E-04 2.18461863E-05
 2 30-3.69575164E-05 1.51113301E-05 9.09164224E-05-7.61050497E-05-1.67741726E-05
 2 31-2.27340514E-05-3.85833513E-05 6.25052840E-04-9.83482942E-06 2.87931985E-06
 2 32-2.01280787E-06 6.85241129E-06-2.38048679E-04 2.68196184E-04-8.90155828E-06
 2 33 1.66693328E-06 7.23462499E-06 1.03132524E-05 4.69468045E-06-5.31635585E-06
 2 34 1.10524488E-05 1.88280139E-05-1.21017723E-04-5.59154414E-06 3.40115830E-07
 2 35 1.41166260E-06 3.36047462E-05 6.57761849E-05 7.07346703E-05-5.07357198E-06
 2 36 4.05370775E-06 1.01986422E-06-2.11877815E-06-3.31699492E-06-3.81564185E-06
 2 37-4.33160985E-06-1.07377157E-05-3.52070394E-04 2.98053344E-05 1.01755122E-05
 2 38-2.06646497E-05-6.21758072E-04 8.51898265E-04-3.56779129E-04 3.90508906E-05
 2 39-2.13398410E-05-1.77110496E-05-1.84280682E-05-4.36637003E-06 3.49226755E-05
 2 40-2.24861245E-05-4.01989031E-05 1.97920712E-04 1.17778298E-06-8.51539867E-06
 2 41-4.25565679E-06-1.28562918E-05 1.07168563E-04-2.46598393E-05 1.03335193E-06
 2 42-4.48203226E-06 3.44868033E-06 3.82835929E-06-4.28328941E-06 6.31026768E-06
 2 43 1.19792293E-06 2.05268976E-06 3.23756485E-05-1.05186737E-05-4.71319572E-06
 2 44-2.14552660E-06 2.43338106E-05 1.41694815E-05-5.03771901E-06 5.38359748E-06
 2 45 1.24107007E-06-6.62466755E-06-1.87822579E-06-3.84919347E-06-2.85279903E-06
 2 46-1.17448008E-04-2.24344466E-04 2.65212038E-03 4.53451107E-05-2.50038540E-05
 2 47-8.17413930E-06 2.93404449E-03 4.07010527E-04-9.85355535E-04-1.91887367E-04
 2 48 1.46516076E-04 4.53712909E-05 1.74855551E-04-4.81426585E-05-1.63872858E-04
 2 49 1.45946100E-05 2.54100135E-05-1.17393329E-04 4.88097606E-06 3.01842170E-06
 2 50 2.09934910E-06-1.18845825E-05-3.78850637E-05-1.07542211E-04-2.80272403E-06
 2 51 7.89313284E-06-5.09040881E-06-6.68114044E-06 5.45131199E-06-5.46618804E-06
 2 52-1.17183121E-06-2.32080906E-06 9.06265771E-06 2.11500878E-06 8.89384742E-07
 2 53 3.83985853E-07-1.96888509E-06-1.05684786E-05-1.26262434E-05-2.42430484E-06
 2 54-2.20855410E-07 2.64516025E-06 1.64732563E-07 5.74539273E-06 7.36972713E-07
 2 55 4.58456392E-05 7.19568161E-05-2.54669148E-03 3.22508959E-05 9.46964875E-06
 2 56-1.33342067E-05 4.40367552E-04 4.84372233E-04-5.20324022E-04 4.53432889E-05
 2 57-1.12015401E-05-3.41417488E-05-7.47284974E-05 4.63957942E-05 6.42364092E-05
 2 58 3.06567284E-04 5.47511114E-04 3.26298728E-04-2.03917352E-04 3.96864423E-05
 2 59 3.20696795E-05-5.02616775E-03-1.33426622E-03 2.19893873E-03-2.82767662E-04
 2 60 2.45636475E-04 3.71311873E-05-2.07423319E-05 1.00866459E-04-1.61324250E-04
 2 61-1.35816278E-04-2.37953990E-04 4.11651683E-03-2.00827054E-05 3.60106238E-05
 2 62-2.03637693E-05 1.40366077E-03-1.66432739E-03 6.02926541E-04-7.47338599E-05
 2 63 1.59630155E-04-8.48962955E-05-2.58648326E-04 1.38419481E-04-1.17197114E-04
 2 64-1.43562314E-06 3.94872540E-06-2.74738922E-06 5.05003018E-06 2.08295660E-06
 2 65 6.36401298E-06-3.70599519E-05-7.64748091E-07 6.71881161E-06 2.96798273E-06
 2 66-7.02736531E-06 2.60146185E-05 1.41108075E-07-4.94168958E-06-4.50925464E-06
 2 67-1.76716967E-06 2.90439739E-05-1.18845561E-05-1.07223649E-06-5.90523572E-06
 2 68 7.25241734E-06 3.16563609E-05 3.92707388E-06 2.29417974E-06 3.15661490E-06
 2 69-4.54527030E-06 4.33213948E-05 6.83552720E-07 1.28938098E-05-8.39489046E-06
 2 70-2.54724426E-05 9.88677208E-06-2.94353396E-07 1.07354242E-05-1.30308658E-05
 2 71 7.36989883E-06-2.74672209E-05-3.09676989E-06 2.13234568E-06-6.14306483E-06
 2 72 2.35618846E-06-2.51181160E-05 2.25927197E-06-4.16114834E-06-4.45649790E-06
 2 73 6.53474656E-06 5.33602713E-05-2.01973449E-06 6.24969350E-06-1.76358479E-06
 2 74-3.85027335E-07-2.17651504E-05-6.66921792E-07-1.26663791E-06-1.47201766E-06
 2 75-3.50728648E-06-3.59187337E-05-1.55824041E-06 7.59103355E-07 2.93449732E-06
 2 76 9.41954916E-07-3.06664326E-07 1.79518920E-06 3.93740121E-07 2.01233751E-06
 2 77-1.45912373E-06-4.16871153E-06-1.04562831E-06 1.25581469E-06 2.98233706E-07
 2 78-2.41065707E-06 9.97946779E-06-1.01597417E-06-1.82851324E-07 1.81855320E-06
 2 79 9.74874282E-05-9.17920205E-05-2.93793019E-05-3.81458338E-05 3.87993019E-05
 2 80-9.80000658E-05 4.69757904E-04-1.03918574E-04 1.27338117E-04-4.69872950E-05
 2 81 1.10366377E-05 1.12550555E-05 1.33612730E-06 1.43590517E-05 1.53209375E-06
 2 82 1.26312110E-04-3.00903929E-04-8.47476950E-05-4.93950064E-04 3.71644627E-04
 3  1 6.44008493E-05-6.31771056E-05 4.73116011E-04-3.90926869E-08 1.53751102E-05
 3  2-1.97039332E-05 1.32594585E-04 1.17629665E-05 1.93095052E-05 1.76101021E-05
 3  3-1.74875135E-05-1.22588634E-07-1.19271783E-06-9.92064994E-06-3.64608976E-06
 3  4 1.00137214E+00 2.07781466E-03-6.25393880E-03 5.74417828E-04 1.48424898E-03
 3  5-4.63279751E-05-1.90366812E-03-9.78646603E-04 9.47017579E-05-2.02988807E-04
 3  6 1.25535379E-04 7.74534279E-05-1.88272333E-04 1.43454672E-05 6.75409843E-06
 3  7 3.25955162E-06 1.31987347E-05-5.96612252E-05-2.33434637E-06 2.17755266E-06
 3  8-1.68585353E-06 1.49001278E-05 2.27127185E-07 1.66583504E-06 3.19342190E-06
 3  9-2.85523044E-06-3.38191460E-07 5.24919562E-07-3.26833485E-06-1.20103870E-06
 3 10 2.28755362E-05 3.95806555E-05-3.18529968E-04 7.24246881E-06 3.96322025E-08
 3 11-2.41557129E-06 5.03065863E-05-6.65388915E-06 7.97022000E-05-5.09074180E-06
 3 12 2.78585069E-07 4.81215673E-06-1.28383497E-06-1.88859638E-06 1.24863149E-06
 3 13-7.39282219E-05-1.23866835E-04 8.60031852E-04 2.44465947E-05 2.05830116E-05
 3 14 1.51397688E-05-7.16475824E-04-7.86678076E-04-2.01102723E-05 9.51178965E-05
 3 15-6.51465768E-05-2.99713197E-05 7.22736458E-05-3.28205461E-05 5.30134991E-06
 3 16 8.56217494E-05 1.36290737E-04-1.88849854E-03 3.96137115E-05 3.70732665E-05
 3 17 7.64762894E-06-2.76177809E-04-7.85107295E-04 4.52595936E-04-1.96448108E-05
 3 18-1.77883389E-06 2.14236447E-05-5.92083043E-05 4.33776092E-06 7.66847181E-06
 3 19-1.32294813E-04-2.24933663E-04 1.66307127E-03 1.68020345E-06-1.63267104E-05
 3 20 5.68051964E-06-8.30037953E-04-4.60400160E-04 2.93053946E-04 3.27781424E-05
 3 21 5.95519245E-06-3.87333349E-05 6.57318592E-05-1.23803855E-05-1.51042843E-05
 3 22 1.25980524E-04 1.85557466E-04-2.40124177E-03 5.39011218E-05 1.04627166E-04
 3 23 3.71103266E-05 9.94957663E-05-1.57770393E-04 1.12455232E-03 5.57220182E-06
 3 24-2.71456849E-05 2.15734831E-05-1.20018773E-04-5.85902539E-05-4.81608307E-05
 3 25 3.48338058E-05 6.34345978E-05-2.67304064E-05-8.68049583E-06-6.30199838E-06
 3 26-1.10393347E-05 1.67772677E-04 2.13416406E-04-4.73107588E-06-1.28644877E-05
 3 27-3.43032461E-06 1.62948123E-05-2.17845365E-05-1.87381633E-05-7.68307485E-06
 3 28-3.65202924E-05-5.97561054E-05 3.62133355E-05 8.18078576E-06 1.66399120E-05
 3 29-7.20992801E-07 2.85757759E-04-5.33827950E-04 2.58173934E-04 2.29565648E-05
 3 30 9.26622166E-06-3.22227865E-05-7.10861892E-06 1.23289495E-05-1.84391181E-05
 3 31 1.83016944E-05 2.91058704E-05-3.62708177E-04-4.00287564E-06 1.81676250E-05
 3 32-3.16956750E-06 2.16151406E-04 1.01589099E-04-1.64655144E-04 1.19424394E-05
 3 33-7.11410493E-06-4.82833451E-06 1.12116480E-05 1.81426456E-06 6.35406617E-06
 3 34-2.89808078E-06-4.24149088E-06-8.41904037E-05 9.09122317E-07-1.71544167E-06
 3 35 5.21440427E-06 2.27146728E-06-5.22970836E-06-1.08410943E-04 4.96238105E-06
 3 36 2.44722793E-06-7.40960899E-06 7.29327031E-06 1.11991862E-06 6.27803039E-06
 3 37-2.38130717E-05-3.96741325E-05 7.80535065E-04-4.73948587E-06-8.37831964E-06
 3 38 7.35218047E-07-6.45507816E-05 7.70375944E-05-4.05075226E-05 5.88836256E-06
 3 39 1.88496732E-06-7.77332988E-06-4.13589219E-06-9.56988266E-06 1.81975696E-06
 3 40-2.06352252E-04-3.39126439E-04 5.29793372E-03-2.56231222E-04-1.15828997E-04
 3 41 2.21553762E-05-2.30786566E-03 6.78259187E-04-2.39988572E-04-3.86862278E-05
 3 42-6.61680164E-06 4.53030295E-05 3.04266917E-06-1.34743103E-05 3.33214710E-05
 3 43-7.73739504E-05-1.31935597E-04 1.07259737E-03-4.01418504E-05-5.47791562E-06
 3 44-3.92276251E-05-2.16980501E-04 6.55206676E-05 7.63225839E-04 7.68164858E-05
 3 45-3.45913312E-05-4.22251547E-05 7.92888724E-05 2.36226192E-05 2.15689559E-05
 3 46-2.38840834E-05-3.68526793E-05 5.56664712E-04-1.42682819E-05-3.50667623E-05
 3 47-8.75697187E-06 3.69437403E-05 5.33893933E-04-2.90281970E-04-5.35778878E-06
 3 48 3.37486228E-05-2.83908341E-05-1.47183320E-05-2.09943025E-06 1.87166077E-05
 3 49 4.38936113E-05 4.48417928E-05-1.85399820E-03 4.74649774E-05 1.63132929E-07
 3 50-9.83615347E-05 2.46668650E-04-2.44643745E-04-8.43562159E-04-1.66907558E-05
 3 51 2.31383636E-05-6.44760779E-06-5.35113410E-05 1.83144556E-04 4.65179820E-06
 3 52-2.31418908E-05-3.90791336E-05 1.75277792E-04-4.63835748E-06-6.62098189E-06
 3 53 1.01699838E-05-1.37487337E-04-7.23986365E-06-1.31638912E-04 1.29877184E-05
 3 54-4.07549195E-06-8.91222650E-06 1.15020330E-05 1.40491520E-05 3.83010480E-06
 3 55 8.24175453E-06 1.25789339E-05-3.67467594E-04 3.63776009E-06 1.59247876E-06
 3 56-2.32517699E-06-6.02770922E-05 1.57264636E-04-8.62424649E-05-1.24512129E-05
 3 57 4.19725579E-06 8.25395714E-06 7.10404396E-06 1.70822072E-06 1.00108717E-06
 3 58 1.89417933E-05 3.05544409E-05-7.96855871E-04-1.05183239E-05 1.66549816E-05
 3 59-9.86694070E-06-3.50157135E-04-2.97206721E-05 8.71610524E-05-8.09063896E-06
 3 60 7.90180031E-06 1.88838644E-07 1.42961391E-06-6.09896107E-06 1.55677871E-05
 3 61-1.36522539E-05-2.14040050E-05 4.30786658E-04-5.17374902E-06-4.99142181E-06
 3 62 1.39131807E-06 5.13129505E-05-2.20987723E-04 1.36112130E-04 7.32343617E-06
 3 63-2.25587986E-06-5.06755631E-06-1.29711932E-06-6.10706230E-06-1.00533585E-05
 3 64-4.60064889E-05-9.23563387E-05 4.56200590E-05 2.57242635E-05-1.25935440E-05
 3 65-2.84340831E-05 1.07943407E-04 1.75664776E-05 1.72145158E-05 5.96993792E-06
 3 66-2.87490625E-05-3.23529022E-04 3.63758004E-05 2.49359119E-05 2.51577145E-05
 3 67 1.53327751E-05 5.76492336E-05-6.71897145E-06-8.82829071E-07 1.19831577E-05
 3 68-6.26557831E-06 3.25442083E-06-1.12204176E-05-1.06615126E-05 9.88170334E-06
 3 69 1.22015969E-05-4.72643438E-05-1.51256209E-05 1.68842264E-06 2.05543783E-06
 3 70 1.17971642E-05-3.92015027E-05-1.94038081E-06-4.25760056E-06 1.62835784E-05
 3 71-3.78551228E-06 8.53003551E-06 3.81141255E-06 1.53521772E-06 4.67205315E-06
 3 72 1.97816972E-05 1.15643487E-05-8.59540601E-07 6.70816534E-06 4.59442155E-06
 3 73-1.90149250E-04 1.26752605E-04 1.81341173E-04 1.84465728E-05-2.02835259E-05
 3 74 5.82445080E-05 1.86961685E-04 1.62112129E-05 8.30125134E-07 2.16674311E-06
 3 75-4.93161879E-05-9.17629374E-05-2.49272659E-06 5.31658449E-06-3.24037304E-05
 3 76-2.85144258E-05-2.21248817E-05 5.76180515E-06 3.81637220E-06 9.77804153E-06
 3 77-1.93644158E-05-1.84328004E-05-1.24506952E-06-4.45739750E-06 6.23787565E-06
 3 78 6.89586008E-06 7.45348189E-05 3.24655344E-06 1.90354492E-06 1.83397437E-06
 3 79 1.03216147E-06-1.77883272E-05 2.81887581E-06-3.27725128E-06 1.99769748E-06
 3 80 4.39768856E-06 4.40755394E-05-2.12112118E-07 8.41950091E-06-5.59330863E-06
 3 81 4.64770638E-06-6.97058978E-05-2.77113783E-04 5.98048809E-04 2.83210553E-05
 3 82-2.16332971E-06-1.24733766E-06-6.85293273E-07-2.84516379E-06-1.09093865E-06
 4  1-1.74639816E-05-2.98171069E-05 2.48106304E-04-1.34552026E-05 6.29651894E-06
 4  2-1.97890957E-07 2.18968467E-04-5.05650846E-05-3.17198832E-05 8.89926895E-07
 4  3-6.80085475E-07-2.09841419E-07-2.74181236E-06-3.17139595E-06 7.00301428E-07
 4  4 1.37572502E-05 2.43360178E-05-1.32922524E-04 7.53727967E-07 2.20150581E-06
 4  5 5.81644818E-06-4.82993292E-05-5.42041431E-05-1.10323321E-05-5.16274813E-06
 4  6-2.01982165E-06 7.18256977E-06-2.19724811E-07 4.01793772E-07-2.57139033E-06
 4  7-7.39629300E-06-1.29978686E-05 1.05179033E-04 6.06334353E-06-4.11638733E-06
 4  8 1.19881069E-06 1.63005027E-05-1.43559571E-05 3.04165119E-06-2.30152913E-06
 4  9 6.92333864E-07 1.60919527E-06-7.38351384E-07 2.17254175E-06 7.17347041E-07
 4 10 1.00207718E+00 3.64638403E-03-1.03797832E-02-3.98271317E-04 1.37312638E-03
 4 11-3.20128175E-04 1.63403256E-03-1.80546222E-03 7.39518016E-04-5.95139949E-05
 4 12 1.53794814E-04-9.42808193E-05-1.20928765E-05-3.84845085E-05-6.02258893E-05
 4 13 6.58396851E-05 1.18448597E-04-4.68312438E-04 4.38483144E-05 4.01551448E-05
 4 14-6.04376468E-06-7.84331176E-04-9.27959009E-04 1.01906585E-03-6.42339026E-05
 4 15 1.19889802E-05 5.22449223E-05 4.69128138E-05 2.11529044E-05 2.87393763E-05
 4 16-5.95279217E-05-1.24906575E-04-5.14075152E-04-1.08443643E-04-8.74819468E-05
 4 17 1.19074564E-05 2.20258503E-04 5.15787970E-04 8.35301412E-04-1.74313922E-05
 4 18-2.63004797E-05 4.37318719E-05-6.03211941E-05 3.21912880E-05 2.47506287E-05
 4 19-7.99728876E-05-1.83123996E-04 3.05537921E-03 2.68604014E-04 7.90320360E-06
 4 20 2.09436234E-04 6.30963715E-04 6.89998869E-04 1.87324462E-03-2.29162479E-05
 4 21 9.44229445E-05-7.15066966E-05 6.28565190E-05-9.14851590E-05 6.91877819E-05
 4 22 7.73303401E-05 1.29816704E-04-1.28535481E-03 9.77994803E-06-1.27958257E-05
 4 23 9.36268919E-07-4.32068807E-04-3.48157712E-04 1.75826280E-04-3.95826485E-05
 4 24 4.36109724E-06 3.52215512E-05-2.92786652E-06 1.17461548E-06-1.83060779E-05
 4 25 6.25233577E-05 9.10083725E-05-1.20249493E-03-1.35412927E-04-4.75350403E-05
 4 26 1.55685531E-05 6.14217187E-05-9.24568540E-05 5.72139199E-04-6.56738809E-05
 4 27-1.64154233E-05 8.20893042E-05-6.12727162E-05-5.06614569E-05 7.42996756E-05
 4 28-4.01032339E-05-4.99164292E-05 2.19501630E-03 6.57203835E-05 1.24191789E-05
 4 29-1.22589055E-05-5.24256940E-04-1.10512369E-03 6.50903689E-04 1.19806784E-04
 4 30-6.30325363E-05-5.67742478E-05-1.10085895E-05-5.13993539E-05 3.75765321E-05
 4 31-1.63151729E-04-3.08972410E-04 1.26288709E-03-1.17978797E-04 1.33931009E-04
 4 32-7.96257567E-05-7.11933939E-04-1.61095704E-04 4.96469874E-04 2.89152722E-05
 4 33 3.21951442E-05-6.11104163E-05 7.46812429E-05 6.38219021E-07 8.13223484E-05
 4 34-6.14899627E-06-4.59507840E-05 3.22441622E-03 1.93191161E-04-5.38163926E-05
 4 35-2.34833010E-04-2.62273363E-04-2.49583860E-04-1.56556870E-03-3.50237670E-05
 4 36 8.73914036E-05-5.23676366E-05 1.23978859E-04 1.12501406E-04-1.75011004E-04
 4 37 8.42935425E-05 1.64440331E-04 7.16765331E-04 8.56049794E-05-6.70695587E-05
 4 38 3.08633778E-05-2.12749852E-03 1.41124278E-03-2.77867288E-06-3.01577646E-05
 4 39 3.15749149E-05-1.41715030E-06-1.37023155E-05 2.58157955E-05 2.72000482E-06
 4 40-5.70672981E-05-9.87612463E-05 7.97742683E-04 3.22055892E-06 1.87732398E-06
 4 41 1.64426724E-05 6.74291362E-06 2.10777301E-04-3.39027866E-04 1.98775184E-06
 4 42-5.91852356E-06 3.93077172E-06 1.81609835E-05-1.29751433E-06 5.94776554E-06
 4 43-7.28318130E-05-1.30909107E-04 3.29381695E-04-3.17788853E-05-2.50672646E-05
 4 44-1.83600406E-05 1.13216056E-03 5.70861641E-04 6.50009959E-04-2.02699406E-05
 4 45-2.78891582E-05 4.81590989E-05 4.86469757E-06 1.28633325E-05-4.74342347E-06
 4 46 5.10152475E-05 7.89065744E-05-1.01415223E-03-4.59924868E-05 6.24089783E-06
 4 47 4.08960480E-06-1.37694411E-03 5.74822556E-04 6.54234922E-05-7.38157625E-05
 4 48 3.52917574E-05 3.85240051E-05 1.39004479E-05 3.45684204E-05 3.03133548E-05
 4 49-1.67221669E-05-3.16260054E-05 4.83817895E-04 1.22555760E-05 5.61527857E-06
 4 50-2.66196879E-06 5.11311853E-04 2.40247105E-04-6.70980825E-04 4.56802697E-06
 4 51 7.81245629E-07-5.34927260E-06 8.48618512E-06-1.75865238E-05-7.88729009E-06
 4 52 1.27127862E-04 1.87552509E-04 1.83233292E-03-2.21526109E-04-6.85675870E-05
 4 53 2.07512689E-05-5.70450740E-04 1.88391367E-04-2.46076543E-05-7.61318196E-05
 4 54-2.38190300E-05 9.99508496E-05-3.30593946E-04 1.09200455E-04 7.15097888E-05
 4 55 7.89757581E-05 1.31258765E-04-2.30290334E-03-3.95105602E-05 1.65715909E-05
 4 56-1.13156003E-05-6.42407149E-05 9.99079293E-04-6.00974118E-04-4.98004924E-06
 4 57-1.70955834E-05 2.20756327E-05 1.90080822E-05 8.73641285E-06 4.99533793E-05
 4 58 2.95698399E-05 5.18628070E-05-8.99769543E-04-6.01844663E-07-2.32980797E-05
 4 59 1.11211878E-05-6.00130093E-05 3.87636891E-04-1.99334837E-04 4.58789781E-07
 4 60-1.17639947E-06 7.17609685E-07-5.50654599E-06 6.14991243E-06 1.50391316E-05
 4 61-1.19471484E-06 2.50295554E-06 4.37604976E-04 2.65809043E-05 7.51578487E-06
 4 62-1.48277432E-05 3.03382485E-04-2.94976891E-04 5.83666664E-05 4.50071240E-06
 4 63 1.72102116E-06-6.22173357E-06-5.11974941E-06-5.23099641E-06-4.90800480E-06
 4 64-4.80471425E-05-3.15746140E-05-4.75351647E-05-7.22889069E-05-5.61186154E-05
 4 65-9.78054857E-05 1.70684210E-04-4.01816666E-05-2.67311143E-05-6.21777070E-05
 4 66 2.39276075E-05-4.00947169E-05 4.74324259E-06-2.78122879E-06 7.22414438E-06
 4 67 6.24145915E-05-1.77723204E-04-2.54620981E-05-4.27743186E-06 9.58790547E-06
 4 68-4.51579444E-05 9.26117887E-05-2.09907632E-05 3.07275077E-05-1.38830217E-05
 4 69 3.98747173E-05 2.30540249E-04 6.04954933E-05 1.68333448E-05 3.14644186E-05
 4 70-1.53958840E-04 1.30118950E-04-2.12783996E-06 6.93474034E-05-7.18525289E-05
 4 71-4.49498975E-04-2.05720161E-04 3.78279287E-06 4.96135124E-05 7.34265569E-05
 4 72-1.27731470E-04 1.98182797E-04 1.40878663E-05 2.18765429E-05 5.66948768E-05
 4 73-5.85087691E-06 8.09766551E-05-2.97595034E-06 6.98927526E-06 7.47230070E-06
 4 74-6.13341061E-05 1.16527623E-04-4.63508164E-05-2.41200838E-05-2.63394576E-05
 4 75-3.33559961E-05-3.19201259E-05-1.44651345E-05-5.54925721E-06 3.03376915E-05
 4 76-2.64898322E-04-3.72435760E-04 4.24392817E-05 3.31224442E-05-8.94115983E-06
 4 77-2.21408806E-04-1.49682336E-04 6.71968087E-05-2.70494815E-05-3.98950132E-05
 4 78-2.41469062E-04-7.61575786E-05 6.88443953E-05-1.48574539E-05 5.67042682E-05
 4 79 9.43809617E-06-2.92381663E-04 3.78718243E-06-2.55383441E-05 9.25588759E-06
 4 80 2.03520070E-05 7.47058352E-05-1.62930244E-05 1.06402358E-05 1.86088369E-06
 4 81 1.14148873E-05-1.76311816E-05-4.01644229E-06-1.29219912E-05 1.87494356E-06
 4 82-1.49217881E-05-3.43200691E-05-1.82066148E-05 5.28453764E-06 3.58365555E-06
 5  1 1.16416611E-04 3.96704975E-04-2.79876401E-04 2.59817103E-04-1.85968580E-04
 5  2 3.57061168E-06-6.84235475E-04-5.49552897E-04 7.73708144E-05-1.04415516E-04
 5  3-3.61642529E-05 1.40579769E-04 1.44007281E-04 4.15063505E-05 6.51716452E-05
 5  4 4.46757601E-05 6.96922527E-05-7.72567352E-04-2.55323831E-05-2.61601905E-05
 5  5-2.97436719E-05-3.02911297E-04-3.16189932E-04 1.33945283E-04-2.74294088E-05