#PLAN A: REQUIREMENTS FOR FULLY IN-MEMORY TRANSFORMATION: 27285407525
 $SYSTEM MWORDS=11202 MEMDDI=3798 $END
 $CONTRL MAXIT=200 SCFTYP=RHF RUNTYP=ENERGY ISPHER=1 UNITS=ANGS
  EXETYP=RUN COORD=UNIQUE ICHARG=0                   $END
 $BASIS gbasis=CCD                                   $END
 $SCF DIRSCF=.TRUE.                                  $END
 $SCF DIIS=.TRUE.                                    $END
 $SCF SOSCF=.FALSE.                                  $END
 $STATPT NSTEP=1000                                  $END
 $GUESS GUESS=MOREAD                                 $END
 $ELMOM IEMOM=0                                      $END
 $DATA
 tetrahydrocannabinol HF/CCD local minima geometry
C1
O     8.0    -0.66268080    -1.85802019     0.57022667
O     8.0    -0.42369819     2.62899637    -0.96589440
C     6.0    -2.77737093    -0.90174091     0.04857780
C     6.0    -2.13962197     0.37406874    -0.52079517
C     6.0    -1.87538981    -2.12696838    -0.14335155
C     6.0    -4.21177149    -1.00179839    -0.47083667
C     6.0    -0.67076671     0.44425565    -0.12343728
C     6.0    -5.04454422     0.15269986     0.09357540
C     6.0    -2.99566984     1.55860829    -0.09833498
C     6.0    -4.29394293     1.46405053     0.16173044
C     6.0    -0.03709989    -0.67601281     0.40856865
C     6.0    -2.43028784    -3.36634612     0.55064344
C     6.0    -1.53511512    -2.44419527    -1.60033679
C     6.0     0.13642718     1.56863153    -0.33833325
C     6.0     1.29884839    -0.64936608     0.81255776
C     6.0    -5.11524248     2.66081285     0.56738895
C     6.0     2.05552626     0.49402604     0.65096146
C     6.0     1.46319807     1.60737646     0.05555749
C     6.0     3.51340532     0.52468979     1.05522406
C     6.0     4.46194458     0.11526054    -0.07850461
C     6.0     5.93303967     0.14627303     0.33192295
C     6.0     6.88522959    -0.26297924    -0.79098076
C     6.0     8.35432529    -0.23154481    -0.37798059
H     1.0    -2.83025384    -0.76846188     1.13402987
H     1.0    -2.17755103     0.32723421    -1.61548650
H     1.0    -4.67677116    -1.94811380    -0.19222119
H     1.0    -4.21246433    -0.95765454    -1.56356621
H     1.0    -5.38751650    -0.09888034     1.10454273
H     1.0    -5.95411253     0.28435904    -0.50068331
H     1.0    -2.51793027     2.52387309    -0.04159323
H     1.0    -2.72508454    -3.13584852     1.57536399
H     1.0    -3.29172993    -3.76974034     0.01864440
H     1.0    -1.65849102    -4.13575220     0.58518219
H     1.0    -0.88570613    -3.31998754    -1.64275610
H     1.0    -2.44074678    -2.66258812    -2.16913819
H     1.0    -1.01614511    -1.61974716    -2.08779192
H     1.0     1.71673763    -1.54912555     1.24106491
H     1.0    -5.58935213     2.49550390     1.54000390
H     1.0    -5.91993237     2.84434676    -0.15131973
H     1.0    -4.50613737     3.56214380     0.63448888
H     1.0     2.04034925     2.50997853    -0.10989901
H     1.0     3.77191615     1.53054416     1.39671552
H     1.0     3.66255426    -0.14182428     1.90790796
H     1.0     4.30622101     0.77856243    -0.93551397
H     1.0     4.19639349    -0.89022624    -0.41965324
H     1.0     0.21758503     3.31503439    -1.07181764
H     1.0     6.19313192     1.15421569     0.67611885
H     1.0     6.08364391    -0.51643252     1.19204021
H     1.0     6.73572302     0.39912212    -1.65065813
H     1.0     6.62632322    -1.27020407    -1.13450181
H     1.0     8.54510403    -0.91149032     0.45692649
H     1.0     9.00404930    -0.52952874    -1.20411801
H     1.0     8.65544891     0.77161038    -0.06346057
 $END
--- CLOSED SHELL ORBITALS --- GENERATED AT Wed Jun 24 03:38:04 2015
 tetrahydrocannabinol HF/CCD local minima geometry
E(RHF)=     -962.5046432139, E(NUC)= 1963.0571373432,   13 ITERS
 $VEC
 1  1-3.83340632E-05-3.12019208E-05 1.55418148E-04 1.04016475E-05-5.46675288E-06
 1  2-6.18344748E-07 3.40378577E-05 1.84271036E-04-1.15410262E-05-3.27708680E-06
 1  3 1.51136165E-05-1.18365297E-05 1.94306989E-05-5.42855539E-06-5.02861317E-06
 1  4 1.00150627E+00 2.35369196E-03-7.34220250E-03 1.52968248E-03-1.10143844E-04
 1  5 5.12206771E-04-1.40953847E-03 1.37720919E-03-9.89095364E-04 3.49274731E-05
 1  6-8.18111430E-06-2.67463588E-05 1.55138345E-04-6.43487747E-05 6.08678311E-05
 1  7 2.28966046E-05 3.74305507E-05-6.16145547E-04-1.93851534E-05-1.56874206E-05
 1  8-1.88670205E-06 1.75537016E-04-2.65268747E-04 1.83724391E-04 9.05490296E-06
 1  9-2.55598688E-06-6.49891608E-06-7.41297807E-06 6.29189799E-06-1.97305217E-06
 1 10-1.33870471E-04-2.41027426E-04 3.10231778E-03-1.83609087E-05 7.97134272E-06
 1 11-2.58797810E-05 7.45398962E-04 1.61712559E-05 4.83355198E-04-1.55547164E-05
 1 12-1.49546811E-06 1.70501845E-05-2.68547995E-05-1.51779891E-05 1.84930175E-05
 1 13-1.26983940E-05-2.36724550E-05 2.05243682E-06-1.21866439E-05-4.87082016E-06
 1 14 5.27620571E-06 9.46208015E-05 1.41490414E-05-1.41106592E-04 6.03975944E-06
 1 15-2.99919502E-06-3.04056442E-06-9.08191637E-06 3.49537571E-06-9.68585113E-06
 1 16-3.00363680E-05-5.17764711E-05 4.28856888E-04 7.09280157E-06-4.34297209E-06
 1 17 7.90612379E-06 1.98920750E-04 1.88340897E-04 3.15254595E-05 1.20924034E-05
 1 18-6.68731090E-06-5.40509251E-06 3.14075919E-06 5.11364006E-06 4.96753536E-06
 1 19-1.32434911E-04-2.43400114E-04 3.22537754E-03-5.98102567E-05-3.99527757E-05
 1 20-8.61539895E-06 4.17811047E-03 7.22278104E-05 1.13691077E-03 1.90392740E-04
 1 21-1.23996569E-04-6.63961715E-05 2.28921748E-05 7.61774817E-05 4.26013612E-05
 1 22 8.23084955E-06 1.25482841E-05-3.33107337E-04-1.02656207E-05 6.22700614E-07
 1 23 9.98470656E-08-1.30423361E-04-7.70279529E-05 5.96556963E-05 4.50469508E-06
 1 24 1.45665415E-06-5.96134923E-06-3.69287465E-06 6.23011307E-06 1.55086726E-06
 1 25-1.52251098E-05-3.64894897E-05-1.87481647E-04-2.55928565E-07 8.52994540E-06
 1 26-4.44747381E-07-1.69335474E-04 4.99155519E-04 8.53004231E-05-7.91479750E-06
 1 27-1.67329080E-05 2.46477055E-05 2.06153283E-05 3.01228603E-05 6.32196093E-06
 1 28-1.35646090E-05-2.37052387E-05 7.35105250E-05-3.23827603E-07 9.56850009E-06
 1 29 6.50339260E-06 1.07385679E-04-4.25084504E-04-1.06709809E-04 1.65958677E-05
 1 30-5.19832798E-06-1.13975397E-05 2.31868970E-06 3.25806852E-06 1.17818951E-06
 1 31 5.05776800E-06 1.63754884E-06-2.49781976E-03 9.10854481E-06-6.60543452E-05
 1 32 3.06822319E-05-1.39095249E-04-6.79023920E-04 1.09628240E-04 7.93196130E-05
 1 33-8.67066664E-05 7.38705346E-06-6.41471068E-05 4.10243940E-05-5.32652096E-06
 1 34-9.56758434E-06-1.66472384E-05 1.10711946E-04-4.96775626E-06 2.55642895E-06
 1 35-9.48681023E-07 5.70235370E-05 2.07536450E-05 7.04612574E-06 3.39354433E-06
 1 36 2.50813833E-06-5.90168266E-06 1.96037280E-06 4.47496398E-06-8.19663188E-08
 1 37 5.05298406E-08-7.10089040E-07-9.59447497E-05 3.72021025E-06-4.73784096E-06
 1 38-5.56830157E-06-2.85346006E-05 2.98941106E-05-6.14102704E-05 2.43942016E-06
 1 39-2.25996300E-06-1.79457159E-07 6.17164411E-06-6.19536030E-06-4.21273541E-06
 1 40 3.61902482E-04 6.46993857E-04-1.27823392E-03-6.68019083E-05 1.84327458E-04
 1 41-1.10976941E-04-1.57056204E-03 5.60728044E-03-2.77244083E-03 1.45216173E-04
 1 42-9.69856966E-05-4.82304764E-05 2.10572287E-04-2.73830165E-05 8.99359942E-05
 1 43-1.09652173E-05-2.30122924E-05 2.16093412E-05 6.72067826E-06-2.88844087E-05
 1 44 1.53623567E-05-4.94055508E-04-1.11343487E-05-1.45636665E-04-2.07295229E-05
 1 45 1.00096940E-05 1.07198288E-05-2.76111841E-05-4.31391408E-06-1.67589322E-05
 1 46-1.03133283E-06-1.43469899E-06 1.80413661E-04 2.92536950E-06-5.02053305E-06
 1 47-1.85871298E-06 4.69251913E-05-1.34657756E-04-2.82257611E-05-2.78898088E-06
 1 48-6.81517534E-07 3.47049842E-06-1.27339963E-05-5.46276953E-07-1.94251952E-07
 1 49 4.36164350E-05 7.18221510E-05-2.51402544E-03 6.60654818E-05-2.53866879E-06
 1 50 2.47568037E-05-2.46664020E-04-1.25659983E-03 3.77102192E-04-8.01745334E-05
 1 51 7.83963853E-05 1.77814810E-06 4.01852263E-05-4.01357477E-05-2.04139766E-05
 1 52-1.00692903E-04-1.79375374E-04 3.04019035E-03 5.70818791E-05 2.69326362E-05
 1 53 1.55143145E-05 3.32196860E-05-2.53816627E-03 9.92305549E-04-2.21821544E-05
 1 54 1.46230538E-04-1.24048384E-04 2.89740576E-04-8.29025813E-05-2.73778065E-05
 1 55-4.05049673E-05-6.35125177E-05 8.55385641E-04-4.04421792E-05-3.59439035E-06
 1 56-1.80991883E-05-3.93619847E-04 1.63839347E-04-2.15881898E-04 5.29916869E-05
 1 57-4.37168805E-05-9.27480639E-06-1.03269569E-05 1.58657553E-05 2.06355479E-06
 1 58 8.93420253E-06 1.40303685E-05-2.09684047E-04 2.27934990E-06 2.55913275E-06
 1 59-5.54637060E-06-1.73764917E-05-8.15909704E-05-1.00471278E-04 5.17517508E-07
 1 60 5.33115521E-07-1.05063303E-06 3.71378691E-07 7.29737101E-06-1.05774846E-05
 1 61-1.33418791E-05-2.39117284E-05 9.35360574E-05 7.21793753E-06-2.19102448E-06
 1 62-5.51240735E-06-1.85682429E-04 5.03479558E-05 7.06042406E-05 8.63984550E-06
 1 63-4.21845861E-06-4.42138689E-06-3.97358978E-06 1.48439518E-06-3.23688895E-06
 1 64-3.88439721E-06-6.71825574E-06 9.49770302E-05-4.52931484E-06 1.48040823E-07
 1 65 1.46762916E-06 4.25708426E-06 1.55421581E-05 4.95304416E-05-9.62068361E-07
 1 66-1.85038315E-06 2.81245151E-06-6.15737250E-07-3.21868319E-06 7.11402192E-07
 1 67-3.59462780E-06-6.74704215E-06-9.91211798E-06 3.58070705E-06-5.70478565E-07
 1 68-1.76617585E-06-9.43871267E-06 4.42453221E-06 2.64665852E-05 9.13900208E-07
 1 69-1.13414067E-06 2.20240460E-07-6.13381861E-07-1.77608763E-06 2.06319543E-07
 1 70 1.50885670E-05 2.87350101E-05-9.40341819E-06 7.49103289E-06-1.23646935E-05
 1 71-4.07207851E-05-6.27321047E-05-5.20892026E-06-4.68756664E-06-3.58731838E-05
 1 72 4.09204379E-06 5.85408050E-05-4.56520607E-06-1.52089225E-06-4.92935025E-06
 1 73-3.61741859E-05 4.57627826E-05 3.82187995E-06-2.91085148E-06 5.81063632E-06
 1 74 1.13090282E-05-3.88085906E-05 1.97628662E-06 3.68693520E-06-1.81152672E-06
 1 75 1.45505994E-05-1.41395646E-06 4.65008198E-06 1.93313210E-06-5.65865123E-06
 1 76-2.12380903E-05-4.21915176E-04-1.90786048E-05 1.39219879E-05 1.25974567E-07
 1 77 1.39332520E-06-2.90029799E-05-5.05122765E-06-2.85154188E-06 1.69314558E-07
 1 78-2.66385371E-06 2.17323362E-05-2.30313150E-06 8.67505774E-07-5.75195416E-08
 1 79-1.97225465E-05-1.90280092E-05-7.93864196E-08-3.23290010E-06-5.23438012E-07
 1 80 1.84018357E-05 1.74814700E-05-2.90386266E-06 6.64729441E-07-3.72146490E-07
 1 81-5.79681792E-07-2.76029858E-05 1.36926568E-06-6.33082741E-06 2.04461741E-07
 1 82-1.11565249E-06 7.12645587E-06 3.18508799E-06 1.38859826E-05 6.00971451E-06
 1 83 1.41004673E-05 2.71990829E-05 2.04722025E-05-4.97412037E-06 6.96879786E-06
 1 84-6.55711737E-06 9.95207478E-07-4.46881986E-07 2.81280148E-06 5.74227432E-07
 1 85-3.54424269E-06 7.90743640E-06 7.10833495E-07 2.03973222E-06-1.28861796E-07
 1 86-1.27914375E-06 1.02244783E-04-4.25831035E-06-1.03415550E-05-2.08569853E-06
 1 87-5.67648403E-05 5.23133579E-04 7.25848929E-05 1.53337795E-04-3.55007030E-05
 1 88-2.43541140E-05-6.00670921E-05-1.64703568E-06-9.64950086E-06 3.27530536E-06
 1 89-2.10447560E-05 5.73043841E-05 2.81659412E-05-2.32523946E-06-2.30112339E-06
 1 90 1.06258896E-05-2.66676076E-05 2.42586284E-06 6.04318573E-06-2.96354843E-06
 1 91-4.98693814E-06-3.96132803E-05 4.83379547E-06-9.39284569E-07-5.30418864E-07
 1 92 1.35778611E-04-3.76197712E-04 4.72185427E-04 3.91411490E-04-4.10933218E-05
 1 93-1.21003141E-05-1.56587719E-06 6.67246162E-06-2.49778057E-06-6.01876264E-06
 1 94-1.33773135E-05 1.69906021E-05 4.76601703E-06-2.51601473E-06-6.02565662E-06
 1 95-2.30063395E-06 1.26160581E-05-2.20966038E-06-1.78515518E-06-5.98187195E-07
 1 96 8.95865381E-07 6.73629737E-06-1.20507640E-06 8.70788718E-07-1.42102198E-06
 1 97-3.78161369E-06-7.46265479E-06 1.56698943E-06-1.12893339E-06-9.70549188E-07
 1 98 4.43784012E-06 1.79544012E-05-1.01323581E-06 4.11840569E-07-1.48943323E-07
 1 99-2.29279385E-06-2.84913912E-06 1.46258181E-06-1.09638247E-07-1.86309027E-06
 2  1 1.00172104E+00 2.73042560E-03-9.35891702E-03-4.41502948E-04 1.14058871E-03
 2  2-7.99727450E-04 1.08735692E-03-1.71724375E-03 1.29529384E-03-4.72537942E-05
 2  3-1.09249036E-05 5.81786977E-05-7.75282734E-05-1.42805434E-04 3.22827010E-05
 2  4-1.03419122E-05-5.33210371E-05 3.30724812E-04 1.66020997E-05-7.99504701E-06
 2  5 7.13121268E-07 6.86217478E-06-1.09035294E-04 8.52772290E-05 3.57391692E-07
 2  6 2.79865579E-07-6.37257271E-07-1.01309808E-05 6.85174764E-06-6.30077738E-06
 2  7 2.55141038E-05 1.56128234E-05-1.80837038E-03-9.51674141E-05 6.39584523E-05
 2  8 6.76598724E-06-4.99413838E-04 4.53746717E-04 2.27303824E-04-4.83927040E-05
 2  9-3.32685575E-05 8.16612614E-05 7.72950444E-05 3.41229846E-05 3.41260643E-05
 2 10-4.28949556E-05-8.30410462E-05 2.07415096E-03-3.26732306E-06-4.14073060E-05
 2 11-1.25922102E-05 8.56198469E-04-2.46566779E-04 5.46210436E-04-7.70353207E-06
 2 12-3.18703819E-05 3.95739139E-05-8.23745434E-06-3.97929901E-06 6.17656603E-06
 2 13-1.79328325E-04-2.70835866E-04 4.14280888E-03 3.23792596E-04 7.86577846E-05
 2 14 1.60632063E-04 1.25441340E-03 9.54533955E-04 1.19045201E-03 7.77961127E-05
 2 15-2.67550396E-05-5.10410731E-05 5.81695179E-05 5.07321154E-05 8.56568568E-05
 2 16-6.54468785E-05-1.17933102E-04 1.82632533E-04-2.23734275E-05 1.60690563E-05
 2 17 8.14854378E-06 7.09882490E-04-3.84700935E-04-8.39500779E-05 2.61659862E-05
 2 18-2.27557001E-05-3.41028606E-06 1.63503506E-05 3.21902394E-05-1.06822699E-05
 2 19 2.65429146E-05 2.81038498E-05 1.84554030E-05-4.75061604E-05 9.95218620E-06
 2 20-3.83917741E-05 3.06777488E-03 3.17740603E-03-4.62790289E-05 2.10096234E-04
 2 21-2.31421823E-04 2.13255886E-05 1.90947837E-06 6.57424725E-05 6.02443133E-05
 2 22-1.01495775E-05-1.77207380E-05 2.39320842E-04 5.66483549E-06-1.19514920E-06
 2 23 4.39825967E-06 5.77313744E-05-3.56098716E-04-2.65231953E-04-9.84453604E-06
 2 24 1.29213611E-05-3.07682504E-06-7.89501876E-06-5.69185051E-06 1.74113725E-05
 2 25-2.36087153E-05-4.58119311E-05 4.44344346E-04-1.45281972E-05 1.93774330E-05
 2 26-8.80268024E-06-5.12832529E-04-2.30767018E-05 3.40609831E-06 1.33699189E-05
 2 27-3.05984932E-05 1.72285743E-05 3.02607180E-06-8.14840982E-06 1.92065110E-05
 2 28 1.01266686E-05 1.60850656E-05-3.81979993E-04-4.83167227E-06 3.74447447E-07
 2 29-5.70182469E-06-4.56448825E-04-7.86934030E-05 1.58312819E-04-1.74515670E-05
 2 30 5.96920058E-06 1.14823664E-05 1.36566312E-06-2.37745411E-06-2.01310689E-06
 2 31 2.68555926E-04 4.90180911E-04 1.31850189E-03-1.16573771E-04-2.07525445E-04
 2 32 3.90340858E-05-4.25330653E-03-2.83618669E-03-5.91086081E-04 2.05988995E-04
 2 33-1.73505946E-04-3.24830483E-05-1.87186691E-04 1.23656658E-04 9.74182072E-06
 2 34 3.57301911E-05 5.02459269E-05-5.77844041E-04-3.47871897E-05-7.05129285E-05
 2 35 2.76042423E-05-4.92876731E-04-4.77576099E-04-2.45439710E-04 3.57635886E-05
 2 36-6.58230912E-05 3.00595026E-05-3.94258278E-05 6.00858784E-05 4.84811724E-08
 2 37 7.90025253E-06-3.73629363E-06-2.66046598E-04 1.34942665E-05-1.38646009E-05
 2 38-1.00086172E-04-5.11751104E-04-3.75880406E-04-3.35929093E-04 1.00738961E-04
 2 39-2.33257618E-05-7.74131989E-05-2.75916009E-05-1.76094589E-05-3.85914658E-05
 2 40 4.28801670E-05 7.03504344E-05-3.05793244E-03-4.53307814E-06 4.58195191E-05
 2 41-1.17214466E-05 1.09407302E-03 8.98126869E-04-1.79216644E-04 7.49070686E-05
 2 42-5.21901788E-05-2.27168898E-05 4.59814037E-05 6.37563266E-06 5.81032720E-05
 2 43-1.43642365E-04-2.55794142E-04 4.31818646E-03 6.14985004E-05-2.25184071E-05
 2 44 3.81619829E-05-1.43122151E-04 1.85375228E-03-5.98154001E-04-9.96137226E-05
 2 45 1.56212541E-04-5.65988182E-05-1.40998306E-04 1.78425225E-05-1.35197501E-04
 2 46-4.12629002E-08 4.70302213E-07-5.12105968E-05 4.29818660E-06 1.64695113E-06
 2 47-1.45080273E-06-9.14203020E-06 4.50504846E-05-6.62293931E-07 2.14016006E-06
 2 48-8.57899581E-06 6.43883575E-06-3.09473920E-07-4.29718377E-06 7.49851447E-07
 2 49 5.07204348E-05 8.22023400E-05-2.34528459E-03 6.17779848E-05 2.78618651E-05
 2 50 1.24087377E-05 2.68417937E-04 1.14341322E-03-3.42016906E-04-7.98197465E-05
 2 51 5.06130644E-05 2.92066821E-05-5.31292493E-05-1.23724167E-05-2.83252851E-05
 2 52 7.42154744E-06 1.02582770E-05-5.21408470E-04 1.94591179E-05 2.68762155E-05
 2 53-2.87243644E-06-2.09218585E-04-2.14693724E-04 5.71843552E-05-1.33285186E-05
 2 54 1.96018281E-05-6.27330957E-06 3.52207960E-05-2.89100699E-05 1.19010396E-05
 2 55-2.66442093E-05-4.04069215E-05 5.26147784E-04-3.40372320E-05 6.21181603E-06
 2 56-1.57702426E-05-2.92119806E-04-2.64528237E-04-2.46993089E-05 4.63854753E-05
 2 57-2.88437160E-05-1.75417594E-05 7.60917428E-06 8.77429662E-06 1.88562120E-05
 2 58 8.17281851E-06 1.28512210E-05-1.74960899E-04 3.22779181E-06-5.66634688E-06
 2 59-2.41709745E-06-2.34074301E-05 6.27796544E-05-9.77849215E-05-1.66373545E-06
 2 60 9.75572103E-06-8.09198558E-06 1.88970527E-06 4.58049088E-06 7.18969420E-06
 2 61-1.08815830E-05-1.92154750E-05 8.92235506E-05 3.92528431E-06-2.51782842E-06
 2 62-4.01026638E-06-1.42633148E-04 7.19707358E-06 5.19570919E-05 8.55152924E-06
 2 63-2.27283679E-06-6.27869245E-06 4.69874447E-06-7.56175102E-08 2.54547109E-06
 2 64-2.86238319E-06-5.00148055E-06 6.28091926E-05-2.79443147E-06 1.27622719E-06
 2 65 5.93610553E-07-2.27582290E-06-5.50742507E-07 3.27477426E-05-8.62598357E-07
 2 66 2.89328447E-07 5.73269910E-07-4.01664821E-07-1.87698351E-06 2.64929875E-06
 2 67-3.24972198E-06-6.02524020E-06 4.62949693E-08 2.49514514E-06-7.49087044E-07
 2 68-1.31389081E-06-1.14242791E-05 1.33217552E-05 1.65472774E-05 9.99946185E-07
 2 69-6.43641674E-07-3.56304510E-07-9.77097628E-07-1.09680572E-06 6.09260732E-07
 2 70-3.38955629E-05-2.81434670E-04-1.07362089E-04 4.30564926E-05 4.71606002E-05
 2 71-1.73695355E-05 2.23337621E-04 8.38155807E-06-2.47730176E-05 2.04223807E-06
 2 72-5.62506244E-05 5.60507085E-05-2.44403617E-05 1.93781704E-05 8.37728888E-06
 2 73-6.32064307E-05 1.17483862E-05-2.27989956E-05 2.76337160E-05 5.56249697E-06
 2 74 1.39163636E-05 8.28623500E-05 5.46051006E-06 1.58904737E-05-8.26996305E-07
 2 75-2.19572613E-05-6.05071926E-06 3.93317747E-06 7.07582086E-07 9.57135091E-06
 2 76 2.50319028E-05 1.10357213E-04 1.26200510E-05-1.32707524E-05-4.93051427E-06
 2 77 8.25429708E-05 7.57943575E-05-7.95561733E-06-2.69483704E-05 1.79678112E-05
 2 78-3.81584570E-05-2.31416215E-04 2.06627167E-06 2.33052156E-05-3.80234425E-05
 2 79 5.89416487E-05-6.66911506E-05-5.73946122E-06-4.14358584E-05 2.48357468E-05
 2 80 6.83279272E-06-2.56275599E-05 3.06928812E-05-1.02585394E-05-2.73444524E-05
 2 81-5.29055939E-05-2.41420688E-04-1.70233314E-05 1.25326787E-05 1.73560115E-05
 2 82 8.05281416E-05 4.77470693E-05-6.53269511E-06-4.35692582E-06-7.55960255E-05
 2 83-7.94374329E-05 2.65166672E-04 3.96074357E-05-1.23359115E-04 5.28577358E-05
 2 84-1.16700430E-05 5.08060022E-06-2.29821740E-06 1.62592355E-06 2.78286647E-06
 2 85-5.27184628E-06-6.94004593E-06-2.56116722E-07 3.48646965E-06-5.93637294E-07
 2 86 1.02573472E-05-3.47416479E-05-1.22151614E-06-6.38321377E-07 9.45575664E-07
 2 87 3.72540550E-05 7.98365666E-05 1.44407108E-05 1.29109882E-05-4.37221433E-06
 2 88 8.64839682E-07 4.91087135E-05 3.03748659E-05 4.79447306E-07-2.52003575E-06
 2 89-2.84219371E-05-5.04514012E-05-8.22857754E-06 1.18918610E-05-5.38239556E-06
 2 90-7.32859965E-06-5.09216886E-05 7.46198856E-06-2.52103643E-06-2.19814074E-06
 2 91 8.74645641E-06 2.51373898E-05 1.13444494E-06-4.50925218E-06 2.84344928E-06
 2 92-4.55172555E-05-3.61885346E-05-1.43467160E-05 2.37565757E-05-1.86264907E-05
 2 93-1.28536279E-05 2.27133542E-05 2.85335804E-06-1.79393613E-06-3.78668647E-06
 2 94-6.30913087E-06-1.11500086E-05 5.99284699E-06-1.82805961E-06-4.48396543E-06
 2 95 2.06513410E-06 8.22075801E-06-4.95383245E-07-6.55387112E-07 1.54272215E-07
 2 96-3.84034054E-06-9.12198663E-07-1.07537772E-06-1.11529782E-07-1.82034824E-06
 2 97-2.19032384E-06 1.72699103E-06 1.00119250E-06-7.64629502E-07-1.42828443E-06
 2 98 3.04965172E-06 1.42412360E-05-6.25213091E-07-4.80059526E-07 2.53487273E-07
 2 99-3.25916571E-06-7.90660564E-06 1.28539067E-06 1.60082129E-07-1.03489709E-06
 3  1 7.81097395E-06 1.67665395E-05-2.39463286E-04-1.05255360E-06-3.92363803E-06
 3  2 1.69103194E-06 3.33524196E-05 2.76162268E-05-4.03961658E-06 2.70679691E-06
 3  3 1.03523381E-05-1.30591350E-05 1.40762359E-05 4.35757808E-06-1.17571579E-05
 3  4 4.21901008E-04 1.05568977E-03-3.68785604E-03 4.08103994E-05-2.39422157E-04
 3  5 1.14586615E-04-8.59940253E-04 1.28574414E-03-8.11388668E-04 6.23771508E-06
 3  6-1.61448149E-04 1.55210434E-04 6.88129679E-05-1.22809303E-04 2.41146635E-04
 3  7 5.89206826E-05 7.21420693E-05-1.23426437E-03-3.98634399E-05-2.59550666E-05
 3  8 1.32061239E-06 2.73659025E-04-6.28155905E-04 5.45302932E-04 3.77499147E-05
 3  9-2.41493192E-05-1.36005955E-05-6.70114395E-06 1.57886660E-05 3.05455239E-05
 3 10-2.54370855E-04-3.00695973E-04 4.50435766E-03 5.98175104E-05 8.86051409E-06
 3 11 1.51673290E-05 2.01401864E-03-1.25429619E-03 9.44556333E-04 1.22967388E-04
 3 12-4.78784380E-05-7.50889504E-05 7.26966308E-05 3.08708495E-05-3.48861844E-05
 3 13 4.09005029E-05 2.29002394E-05-5.75689679E-05 8.47120398E-06-1.02156914E-06
 3 14 1.19804768E-05-1.39997034E-04-2.81686634E-04-4.13036231E-04-3.74563505E-06
 3 15-1.59770278E-05 1.97226628E-05-1.62041273E-05-1.92487911E-06-1.97793446E-05
 3 16-6.11239596E-05-9.73664833E-05 8.78983070E-04 1.91195030E-05-1.42337575E-05
 3 17 1.73304143E-05 2.91949711E-04 4.57362287E-04-5.85851958E-05 1.75776460E-05
 3 18-2.36252090E-06-1.52151251E-05 2.72332922E-05-3.85001437E-06 5.54529329E-06
 3 19 6.88341538E-03-2.86241224E-04 5.63176886E-03-1.14031491E-04 3.65449254E-05
 3 20-4.58147203E-05 7.88144685E-03 3.36358059E-03 1.05260494E-03-1.05733996E-05
 3 21-1.08415054E-04 1.18988454E-04 1.15516198E-04-1.33989871E-04 1.59733307E-04
 3 22-6.14865314E-06-1.05271667E-05-2.30651674E-04-1.73851049E-05 8.30098909E-06
 3 23-5.72724341E-06-1.31482043E-04 8.47348181E-05 2.40339159E-04 5.32025017E-06
 3 24 1.33194993E-05-1.86397495E-05-2.19911285E-07 1.44099850E-05 4.82979448E-06
 3 25-8.00108077E-05-1.12867006E-04-1.80817499E-05-2.30478646E-05 9.75455379E-06
 3 26-4.68175235E-05 6.80796739E-04-1.73899054E-04-1.95489502E-04-3.44099278E-05
 3 27 1.20237816E-05 2.23861462E-05-1.20311556E-05 2.44987767E-06 3.73224222E-05
 3 28-4.58878793E-05-7.42802431E-05 6.89882300E-04 6.39871618E-06 8.51771512E-07
 3 29 1.49331617E-05 6.26649781E-04-1.18171715E-04-2.84601727E-04 3.78468389E-05
 3 30-1.80336818E-05-1.98131571E-05 7.58140537E-06-1.41386325E-05 7.76424743E-06
 3 31 5.07776426E-04 1.34043160E-04-3.92914235E-03-5.87468054E-06 6.38808414E-06
 3 32 2.41479653E-05-2.80600584E-03-1.45356485E-03-5.11187929E-04-6.13332716E-07
 3 33 1.41402286E-05-1.35268959E-05-8.11299908E-05 1.39051229E-05-6.37832651E-05
 3 34 8.43890097E-06 1.31677021E-05-4.52868236E-05-7.69045565E-06 4.04597196E-06
 3 35-1.44834537E-06 8.40261710E-05-6.58358841E-05 1.21987635E-04 1.43904117E-05
 3 36-1.44758131E-06-1.29428304E-05 1.16828422E-05 8.28314011E-06 1.28741082E-05
 3 37 4.89157806E-05 7.84673298E-05-4.24975353E-04 5.45421407E-06 8.67447859E-06
 3 38-2.11278350E-06 1.45648936E-05-1.58189871E-04-1.88395579E-04 3.69557027E-06
 3 39 6.68530725E-06-1.03808775E-05-1.78428255E-05 1.20186219E-05 2.65644570E-06
 3 40 1.00222333E+00 4.53947638E-03-1.59816155E-02-4.83429556E-04 9.21583642E-04
 3 41-5.07241921E-04-2.29215723E-03 6.93156576E-03-3.63913956E-03 1.41056095E-04
 3 42 1.67795889E-04-3.08851984E-04-1.07961021E-04 2.95043641E-04-3.78026052E-04
 3 43-2.12606149E-04-1.90239845E-04 4.34093047E-03 8.06204602E-06 8.24173919E-06
 3 44 6.17156456E-06-1.46517544E-03 1.19533401E-03-8.23411893E-04 2.46278757E-05
 3 45 4.14187465E-05-6.60466222E-05 1.56033509E-05 2.70056865E-05-5.45703546E-05
 3 46-1.99023119E-05-3.22812875E-05 2.27118945E-04-5.36257915E-06 2.00577417E-06
 3 47-2.49470068E-06 5.91673704E-05-1.76137492E-04 2.49971366E-05-9.89170901E-07
 3 48 1.31405997E-05-1.21514288E-05-4.22405749E-06-1.21946835E-06 2.21975299E-06
 3 49 1.26361107E-04 2.09013282E-04-4.82974756E-03-3.94751116E-06 2.12674596E-05
 3 50 1.21028582E-05 1.94586911E-03-6.18790052E-04 7.82504736E-04-7.72518226E-06
 3 51-2.11955224E-05 2.89207046E-05-7.36278560E-05 2.51757782E-05-1.02657980E-05
 3 52 6.77375871E-03-5.21479478E-04 8.01106128E-03-5.05219319E-05 3.45538926E-05
 3 53-2.97535613E-05-3.09427897E-03-3.95866296E-03 6.24054262E-04 5.18991880E-05
 3 54-1.16369065E-04 6.44698772E-05 7.59433385E-05-5.52019597E-05 1.46543715E-04
 3 55-8.64445546E-05-1.58879148E-04 3.19311132E-04 7.51951955E-06-9.41968019E-06
 3 56 5.07636297E-06-1.50145975E-04 2.57670078E-04-2.96527388E-04 3.68196770E-05
 3 57-2.31467071E-05-1.36729699E-05-3.61770605E-05 2.61669241E-05-9.31813074E-06
 3 58 2.27321498E-05 3.86282817E-05-3.83619793E-04 7.14385668E-06 4.30533030E-06
 3 59-4.92591251E-06 4.59681740E-05-1.67657887E-04-1.20848871E-04-1.64342312E-05
 3 60 5.18453187E-06 1.12496993E-05 9.54071706E-06 5.39043806E-06-6.56584278E-06
 3 61-1.67102672E-05-2.71925796E-05 1.43840379E-04 1.59447873E-06-3.73350300E-06
 3 62-5.81989504E-06-1.74920458E-04 7.42206649E-05 4.83389325E-05 1.14294969E-05
 3 63-6.15320451E-06-5.27629240E-06-4.10884788E-06 4.67898822E-06-4.21033045E-06
 3 64-1.21089050E-06-1.60882723E-06 6.65300825E-05-5.30067838E-06 2.94068840E-07
 3 65 6.09020133E-07 3.08309506E-05 1.51268293E-07 4.21572630E-05-1.73257657E-06
 3 66-1.72084026E-06 3.45341683E-06 3.75866144E-07-2.20803258E-06-1.33253494E-06
 3 67-3.01284149E-06-4.95186238E-06-2.56995206E-05 3.67673797E-06-5.64324883E-07
 3 68-1.96902770E-06-7.99350363E-06 7.36862249E-06 2.93108463E-05 1.09270593E-06
 3 69-1.13713003E-06 4.44240924E-08-1.06650762E-06-1.43895296E-06-4.82681931E-07
 3 70 9.79532429E-06-7.94383023E-05-2.20943940E-05 1.43253532E-05-1.38932561E-05
 3 71-4.89905180E-05 2.60341010E-04-4.45647063E-05 4.68346521E-05 2.70903084E-05
 3 72 8.50014919E-07 1.73582114E-04-6.20410841E-06-8.53711356E-06 1.05553311E-06
 3 73-7.47588823E-05-2.83971220E-05 1.11282478E-05-1.48526523E-05 6.03003800E-06
 3 74-6.54669795E-06-6.78527841E-05 6.18585197E-06 5.74678675E-06-8.53267387E-06
 3 75 2.98695488E-05 3.94349941E-05 1.13121490E-05 3.53709707E-06-1.40045094E-05
 3 76-4.24242849E-05-1.74238790E-04-6.85641336E-05 7.61130114E-06 1.99811655E-05
 3 77 1.38078670E-05-6.54781825E-05-4.69585600E-06 4.03903813E-06-1.98124584E-06
 3 78 6.15899251E-06 1.94864946E-05-1.00641458E-05-4.95069626E-06-2.12313264E-06
 3 79-1.48544699E-05-5.21778957E-05-3.60601008E-07-3.01239757E-06-6.32035983E-06
 3 80 3.26224085E-06-4.79492370E-05 1.36371192E-05 5.90549956E-07 4.68205502E-06
 3 81 1.82596773E-05-5.55065859E-05-4.88564330E-06 1.29099049E-05-3.24967064E-06
 3 82 5.97896655E-05 3.62233271E-05-4.68043255E-07-1.04298159E-05 1.60296764E-05
 3 83-1.81894723E-05 3.63091234E-04 3.76388761E-05-4.20028297E-05 2.17185462E-05
 3 84-8.78806636E-06-1.72542627E-05-5.57289615E-07-1.21714671E-06-4.22212489E-06
 3 85 1.03876438E-05 2.62735532E-05 3.41674107E-06 1.53469147E-06 1.24396765E-06
 3 86-1.48196335E-05 1.03146598E-04 1.82593792E-06-3.63588090E-06-8.35403321E-06
 3 87 2.37883146E-04 1.53341777E-03-5.19757118E-05-5.93395792E-06-2.39668570E-05
 3 88-5.06541317E-05-1.07608271E-04 9.58545276E-06-1.01344401E-05 1.10139368E-05
 3 89-6.03037473E-06 1.36980004E-04 1.74956191E-05-4.80161906E-06-1.51440908E-06
 3 90 2.61048142E-05-1.22657426E-06 1.23221628E-06 9.06406014E-06-2.11672076E-06
 3 91-1.12351843E-05-5.10887896E-05 1.34937501E-07-2.08346905E-06 4.25186173E-07
 3 92 3.83608392E-04-6.48742929E-04-2.01298749E-05-2.66116604E-04 1.06113184E-04
 3 93-1.63860828E-05-2.09791309E-05 5.70247357E-06-9.40365295E-07-4.22218508E-06
 3 94-1.09828220E-05 1.09290789E-05 6.19188434E-06-4.32418246E-06-4.65990380E-06
 3 95 6.10176335E-07 1.47784630E-05-3.09484807E-06-1.30670301E-06-1.02496284E-06
 3 96 2.95968699E-06-8.27201026E-08-1.94116674E-06 8.66092487E-07-1.88063005E-06
 3 97-4.09040863E-06-2.83254441E-06 1.16835019E-06-9.56518256E-07-1.35995460E-06
 3 98 6.17394507E-06 1.77635432E-05-4.77167621E-07 4.00611205E-07 3.12622221E-07
 3 99-1.84831756E-06-1.14843754E-06 1.16292554E-06-5.67139934E-07-2.22778954E-06
 4  1 3.08023740E-04 8.65443587E-04-2.63947860E-03 2.14896293E-04 3.03756002E-04
 4  2-3.19636225E-05-1.80569544E-03-2.07763010E-03 1.93169415E-05 2.43420407E-05
 4  3-2.02498303E-04 1.78156262E-04-2.30970348E-04-1.56568460E-05 8.42935646E-05
 4  4 5.00573185E-06 1.02172919E-05-2.20753955E-04 2.92242542E-07 1.20727653E-06
 4  5-1.07947507E-05 9.08315341E-07-6.12352892E-05 5.83406872E-05-5.45091845E-07
 4  6 9.20462141E-06-8.65952956E-06-3.12500927E-06 4.21568056E-06-8.89537286E-06
 4  7-8.47851786E-05-5.08191605E-05-7.38503607E-04-7.86502175E-05 2.13265570E-05
 4  8-6.36114381E-05 7.96931160E-04-1.43155776E-04 8.50891306E-04-4.76831104E-05
 4  9 4.31189205E-05 4.56418991E-06 3.47003107E-06 1.84997876E-05-2.21663448E-05
 4 10-1.88390111E-04-2.03728074E-04 3.55910006E-03 3.88680675E-05-2.74484755E-05
 4 11 1.94584606E-05 7.47915499E-04 1.24886413E-03 3.34699435E-04 1.44191780E-04
 4 12-1.56379400E-05-1.28553840E-04-2.75157653E-05 4.38933217E-05 1.68647705E-05
 4 13-2.64846584E-03-1.63913992E-07-1.53237622E-03-6.39287632E-05-1.18236164E-04
 4 14 7.99231429E-05-4.75794112E-04 1.44085524E-03-1.09032314E-03 5.57592314E-05
 4 15 8.22972474E-05-1.38056479E-04 1.55954807E-04-5.62469666E-05 4.86166874E-05
 4 16-8.47717788E-05-1.40839363E-04 1.44832373E-03 2.64358812E-05-1.98648539E-05
 4 17 3.10002275E-05 4.76488941E-04 7.23698374E-04-3.52594456E-05 3.50489066E-05
 4 18-2.37154525E-05-1.13334541E-05 1.83022542E-05 7.88719501E-06 1.14556265E-05
 4 19 7.84659324E-03-4.06605787E-04 7.05458765E-03-1.03495551E-04-4.25855773E-05
 4 20-3.74158670E-05 5.39463270E-03-3.04994958E-03 2.41280441E-03-1.25750599E-04
 4 21-3.79461242E-05 1.63696723E-04-9.69652885E-05-8.77786086E-05 7.87371982E-05
 4 22 5.18250534E-05 8.22868951E-05-1.09035167E-03-2.03031627E-05-4.12003020E-06
 4 23-3.93242935E-06-4.71385652E-04-1.21196398E-04 3.01968432E-04 7.06250293E-06
 4 24 3.20096650E-06-1.02634694E-05-6.21101903E-06 1.63708831E-05 7.65541680E-08
 4 25 4.65268752E-05 5.97201163E-05-1.43795170E-03-2.13842195E-05 2.55724138E-06
 4 26 2.61463112E-06 8.00419891E-05 8.74680943E-04 2.91208462E-04 8.99709814E-06