#PLAN A: REQUIREMENTS FOR FULLY IN-MEMORY TRANSFORMATION: 17400007183
 $SYSTEM MWORDS=12363 MEMDDI=2637 $END
 $CONTRL MAXIT=200 SCFTYP=RHF RUNTYP=ENERGY ISPHER=1 UNITS=ANGS
  EXETYP=RUN COORD=UNIQUE ICHARG=0                   $END
 $BASIS gbasis=CCD                                   $END
 $SCF DIRSCF=.TRUE.                                  $END
 $SCF DIIS=.TRUE.                                    $END
 $SCF SOSCF=.FALSE.                                  $END
 $STATPT NSTEP=1000                                  $END
 $GUESS GUESS=MOREAD                                 $END
 $ELMOM IEMOM=0                                      $END
 $DATA
 benzylpenicillin HF/CCD local minima geometry
C1
S    16.0    -0.68217015     0.84805167     1.33631146
O     8.0    -1.27304065    -0.68083555    -2.36116552
O     8.0    -4.99704170     1.66002226    -0.57616156
O     8.0    -4.97895813    -0.45370495     0.06592146
O     8.0     1.69504869    -3.33451223     0.35275236
N     7.0    -2.20095611    -0.57053387    -0.21511394
N     7.0     1.04004371    -1.29677212    -0.32186487
C     6.0    -1.23060060    -0.81032526     0.85031986
C     6.0    -2.36736298     1.53655994     1.00945878
C     6.0    -2.88270044     0.70236689    -0.22035572
C     6.0    -0.34955063    -1.56217241    -0.18865411
C     6.0    -1.29681146    -0.92233634    -1.20741534
C     6.0    -3.24456167     1.34670615     2.25539255
C     6.0    -2.24224138     3.02275252     0.66552889
C     6.0    -4.39090395     0.53007841    -0.21761990
C     6.0     1.97727799    -2.24418139    -0.05417686
C     6.0     3.43374825    -1.87745941    -0.31560516
C     6.0     3.75792885    -0.43484953    -0.63161790
C     6.0     3.81265569     0.01415815    -1.94908404
C     6.0     4.00179052     0.47840342     0.39274886
C     6.0     4.10116625     1.34165752    -2.23706889
C     6.0     4.29133224     1.80488908     0.10871892
C     6.0     4.34153605     2.24075723    -1.20847034
H     1.0    -1.59866214    -1.38899255     1.69237626
H     1.0    -2.62727094     1.22660029    -1.14058113
H     1.0    -0.49755597    -2.63482571    -0.11047784
H     1.0    -3.38368940     0.29387167     2.50036454
H     1.0    -2.78203487     1.83876109     3.11020851
H     1.0    -4.23075438     1.79115701     2.10283136
H     1.0    -1.83782256     3.57845330     1.51330864
H     1.0    -1.58436155     3.17509651    -0.19028366
H     1.0    -3.22402477     3.43360233     0.42736509
H     1.0     1.32987237    -0.40033630    -0.64958012
H     1.0    -5.93651438     1.51058400    -0.55639935
H     1.0     3.97964597    -2.21406054     0.56499428
H     1.0     3.74989367    -2.52757716    -1.13282800
H     1.0     3.63013816    -0.67985624    -2.76005650
H     1.0     3.96766186     0.14827082     1.42347610
H     1.0     4.14092112     1.67081630    -3.26690626
H     1.0     4.48035002     2.49831247     0.91745973
H     1.0     4.56967878     3.27450299    -1.43145013
 $END
--- CLOSED SHELL ORBITALS --- GENERATED AT Wed Jun 24 03:08:32 2015
 benzylpenicillin HF/CCD local minima geometry
E(RHF)=    -1422.3704734044, E(NUC)= 2123.2337385135,   14 ITERS
 $VEC
 1  1 1.00004371E+00 2.19106087E-04 2.51505329E-04-9.73710036E-04-5.55171587E-05
 1  2-2.58957669E-05-2.01177911E-05-2.70391763E-05-2.98175724E-06-1.11526737E-05
 1  3 2.39980929E-04 1.25019650E-04 1.06556840E-04-1.35501525E-05-1.15464292E-05
 1  4 2.50965817E-05-4.10866512E-06-1.88254029E-05-1.17913193E-05 3.53887221E-06
 1  5 3.66622075E-06-7.20509296E-06-2.64201586E-07 4.28722687E-06 2.90694176E-06
 1  6-1.95964686E-06-3.47423680E-06 2.54141413E-05-3.04867849E-07 2.99803163E-06
 1  7 2.88574932E-06 3.50103635E-06-1.54270179E-05 1.28068143E-06-3.13780066E-07
 1  8 3.81471059E-07-6.76909927E-08 3.83574361E-07-5.57786952E-07-1.18180486E-06
 1  9 5.07179363E-06 8.89011399E-06-5.24528049E-05-4.36920044E-07 1.94964832E-06
 1 10-4.61116690E-07-1.93299972E-06 1.20002035E-05-4.89812667E-06-1.12404026E-06
 1 11-2.03313883E-08 1.14437165E-06-3.11959833E-07-1.78725165E-09 5.45411772E-07
 1 12-2.76441919E-06-5.33870928E-06 1.58040339E-05 1.67137075E-06 3.36194140E-07
 1 13 1.06483907E-07-1.22235691E-05-1.48028411E-06 1.52084336E-06-3.14837176E-07
 1 14 4.22601145E-07-1.07763969E-07-5.50251913E-07 6.24399769E-07 5.37292683E-07
 1 15-2.32863733E-07-4.80661122E-07-3.42554244E-06-6.90669000E-07-1.00536959E-06
 1 16-6.04780797E-07 4.98726878E-06 2.06568725E-06 3.23260440E-06 2.09148772E-07
 1 17 2.70784521E-07-4.79933293E-07-3.33014281E-07-1.12091061E-07 6.26003124E-08
 1 18-5.51749172E-06-1.15329734E-05-3.11721525E-05-4.62282900E-06-2.49393736E-06
 1 19-1.92299620E-06-2.26133382E-05-1.01834462E-05 1.03238618E-05-7.00203547E-07
 1 20 2.64406219E-06-1.94385865E-06 1.16037686E-06 3.05871819E-06 2.04031611E-06
 1 21 2.37089544E-07-6.09668593E-07-2.58390548E-05 2.91377495E-06-2.47759344E-06
 1 22-3.13071487E-06-1.56878855E-05-1.73239839E-05 1.80276424E-05-9.91576169E-07
 1 23-7.67849289E-07 1.75942546E-06 2.30644870E-06-9.43245800E-07 9.06424371E-07
 1 24-1.56713770E-05-3.08490579E-05 1.96748060E-04-8.54864475E-06-6.87609528E-07
 1 25 4.45503613E-06 3.48239972E-05 1.84354602E-04 8.14383899E-05-1.93413172E-06
 1 26-1.20723692E-05 1.40065009E-05-1.28060995E-05-7.65709513E-06-1.25270883E-05
 1 27-1.82801894E-06-5.34476817E-06 6.67656622E-05 2.67175059E-06-7.62871475E-06
 1 28 1.81606713E-06 1.23604994E-04-7.18847705E-06-5.22161273E-05-9.64288833E-06
 1 29 1.27742382E-05-3.13134988E-06 2.27526993E-06 4.53701219E-07 1.13669458E-06
 1 30 5.84439501E-07-2.43189744E-07-1.21093508E-04-9.65052398E-06-3.27856968E-06
 1 31-1.47271686E-06 1.76587687E-04 1.66262425E-05 6.15339190E-06-3.01479907E-06
 1 32 1.33799179E-06 1.67680728E-06-6.35829880E-06 4.21441171E-06 2.46517590E-06
 1 33-2.12769976E-05-4.07044226E-05 1.05444791E-04 6.79623722E-06-1.21408529E-05
 1 34-3.11880578E-06-9.93564111E-05 6.86525766E-05-2.28692151E-05 6.31644711E-06
 1 35-9.39815369E-06 3.08170658E-06 8.95476698E-07-2.54820595E-06-2.47983559E-06
 1 36-4.12735065E-06-9.99293864E-06-6.73851069E-05-5.61404175E-06-3.34940866E-06
 1 37-7.77411326E-06-3.77782522E-05 3.24244019E-05 1.47739443E-05 3.54458684E-06
 1 38 8.01322281E-07-4.34590912E-06-1.66538875E-06-5.90978745E-06 2.37479633E-06
 1 39-2.32420163E-05-4.22017851E-05 1.45070704E-04-1.24580251E-05 5.03481793E-06
 1 40-1.74376978E-06 1.20492435E-04-5.19322821E-05-3.48153370E-05 5.20389884E-06
 1 41-6.16959966E-06 9.65700827E-07-6.00844018E-06-2.40847966E-06-1.84875936E-06
 1 42-9.77451171E-06-1.94354982E-05-7.41924121E-06-7.62630243E-06 1.15039774E-05
 1 43-2.94458698E-06 2.37689895E-05-1.70103142E-05 2.17829543E-05 1.04919232E-05
 1 44-4.22517708E-06-6.26674614E-06-4.38249352E-06 2.71954289E-06-3.58358364E-06
 1 45-1.32405388E-05-2.24939199E-05 2.17471409E-04 1.72750765E-06-3.03511943E-07
 1 46 1.38532523E-06 1.07383052E-04 4.73378768E-05-1.24890691E-05 8.76576153E-06
 1 47 1.30357469E-06-1.00693362E-05-4.35884151E-06 3.84844381E-06-2.01398117E-06
 1 48 7.57364716E-07 1.78262299E-06-2.29609249E-05 5.50991155E-07 2.34513390E-06
 1 49-3.96143967E-07-4.54331173E-05-7.45637311E-06-3.98978052E-06-1.43555288E-06
 1 50 2.20584794E-06-7.70295058E-07-2.21897869E-06 1.58155713E-06-1.89044411E-06
 1 51-4.10043482E-06-7.13421480E-06 6.01034559E-05-9.82287766E-07-5.52474686E-07
 1 52-4.21457548E-07-2.32443187E-05 5.11453093E-06 1.38146644E-05 9.89003235E-07
 1 53-4.72121599E-08-9.41791075E-07 3.18958930E-07-5.14005211E-07 6.36729269E-08
 1 54 2.53789729E-06 5.03109119E-06 1.62531802E-05-1.61086293E-06 2.34001005E-06
 1 55-1.36422613E-07 1.44352581E-05 1.77517105E-05-2.65518104E-05-1.41850517E-06
 1 56 4.70694561E-07 9.47810607E-07-9.87436010E-07 2.49996444E-07-7.41582123E-08
 1 57 4.42176711E-06 8.17176649E-06-4.67561559E-05-2.36306279E-06 4.54375006E-07
 1 58 7.75874560E-07 5.52566924E-06-3.96986621E-06-2.72560565E-05 1.01038952E-06
 1 59-8.81084802E-08-9.22281045E-07-4.39249141E-07-3.80185766E-07 1.06182619E-06
 1 60 2.69143425E-06 5.19701690E-06-1.16799362E-05-2.31993460E-06-1.68057501E-07
 1 61-5.65435412E-07 4.07016021E-06-6.87559671E-06 1.16010622E-05 6.07971311E-07
 1 62-2.32436306E-07-3.75535005E-07-8.38726509E-09 3.61148212E-07-8.40037662E-07
 1 63-3.62460629E-07-3.76221482E-07 1.90061451E-05-3.99999036E-07-7.66270584E-07
 1 64-2.26737710E-07-2.35583384E-06 4.21189137E-07 1.37985461E-05-5.26264657E-07
 1 65-2.87117094E-07 8.13381752E-07 1.07083244E-06-4.28129444E-07-3.19076652E-07
 1 66-1.11328380E-07-6.25903680E-09 1.36542635E-05-4.60710934E-07-1.12882393E-07
 1 67 1.30004175E-07-2.83959622E-06-4.49331039E-06-3.79573998E-06-9.60862630E-08
 1 68-3.32857274E-07 4.28943537E-07 9.54818225E-07 1.40432799E-07 3.67167715E-07
 1 69 2.32214392E-07 3.75908792E-07-1.60848889E-05-1.02276178E-07 4.89825762E-07
 1 70 1.40833006E-07 2.69918993E-06 6.37355297E-06 1.56276406E-06 1.07449650E-07
 1 71 1.24366861E-07-2.31816512E-07 2.78189613E-07-2.11061817E-07-1.59832694E-07
 1 72-2.64800501E-05 3.52604602E-05-2.60137045E-06-9.51119641E-06-6.50215830E-06
 1 73-5.97841556E-06-2.68975766E-05-1.45124801E-05-1.77457681E-06-6.23758520E-06
 1 74 6.34342083E-06 3.18054589E-05 6.88124657E-06 5.50102938E-06 4.30543129E-06
 1 75-2.06903024E-05-3.46102715E-05-1.49436047E-05 2.00564124E-06 1.10836363E-06
 1 76-2.40859373E-05 6.00696044E-06-1.11724368E-05 5.88183507E-06-3.80043305E-07
 1 77 5.60953755E-06 6.03962122E-05 1.30323002E-06 8.75344529E-07 2.55702026E-06
 1 78-3.03833478E-06-1.30880270E-05-6.07436878E-06 5.03443420E-06-3.06449446E-06
 1 79-1.02772505E-05 1.78592323E-05-6.07560229E-06 5.63532162E-06 6.67545718E-07
 1 80 1.83121071E-06 2.30636628E-05-1.25421548E-06-6.36317871E-07-8.42753060E-07
 1 81-4.56409273E-06 6.00429137E-05-3.69272504E-07-9.53916013E-06 3.15042710E-06
 1 82 1.29645339E-05 4.79765952E-06 4.46268004E-06-3.09117092E-06 8.97415147E-07
 1 83-3.58092209E-06 4.73890803E-07 2.38546213E-07-1.65239010E-07-5.74128259E-07
 1 84-6.84065951E-07 5.14346325E-06 4.50407200E-07 1.14271432E-07-2.54682734E-07
 1 85 1.57260421E-06-8.74711039E-06-1.28580455E-06-5.64548428E-07 5.60588974E-07
 1 86 1.06775620E-06-7.37526694E-06-1.07285728E-06-8.23498085E-08 2.47446516E-07
 1 87-7.00311065E-08 2.73057662E-06 9.45505494E-08 2.56749409E-07-7.59262975E-07
 1 88-2.20715220E-07 5.38259484E-07 6.34604997E-09 3.67994066E-07 4.61710877E-07
 1 89-9.47144266E-09-1.09899132E-06-2.10043514E-07-7.51239723E-09-1.37806650E-07
 2  1 7.15755490E-06 5.11449504E-05 6.08029707E-05-2.25442477E-04-2.53530860E-06
 2  2 4.37611033E-06 2.12648324E-06-8.27995405E-06 1.45843132E-05 9.75616556E-06
 2  3 7.81690315E-05-3.77497329E-05 6.69977883E-05 1.58543906E-05-9.69349456E-06
 2  4-6.16089604E-06 1.16628867E-05-1.72846092E-05-1.49911313E-05-1.96382623E-06
 2  5 1.11670277E-06 8.47123467E-07-2.14824679E-06 2.50207472E-06 1.88912475E-06
 2  6-4.03636271E-06-3.09064361E-06-5.44653245E-05-2.17888382E-06 7.30929088E-06
 2  7-1.03486024E-05-4.93963472E-06-4.06639818E-06-4.19411025E-05 6.39213002E-06
 2  8 1.83951588E-06-8.23164589E-06 1.12688380E-06-7.22940467E-06 8.88097920E-06
 2  9 1.00142032E+00 2.20229608E-03-6.57258528E-03-6.66298820E-04-1.33901013E-03
 2 10 4.06790375E-04-5.10728862E-04 1.88553306E-03-6.13291830E-04 1.25708028E-04
 2 11-1.08657293E-04-1.70507349E-05 9.39369290E-05-2.91314721E-05 4.21637263E-05
 2 12-4.36951435E-04-1.81208189E-04 3.58193298E-04-3.68281979E-05-4.79737946E-05
 2 13 2.42339506E-05 5.54447941E-04-4.28391568E-04 8.06862192E-05 1.18885955E-04
 2 14-1.05040855E-04-1.38450998E-05 3.38320878E-05-1.18066596E-05 2.84635164E-05
 2 15 2.07344671E-06 3.11135819E-06-1.38176186E-05 7.98191347E-07 3.23546214E-07
 2 16-4.21080733E-08-2.95255147E-07-2.69970959E-06-1.27011233E-06 3.20578204E-07
 2 17-1.86103091E-07-1.34475113E-07 5.15828528E-07-3.47263790E-07-2.25167759E-07
 2 18 2.69411680E-05 3.65693135E-05-7.95235843E-04 9.49398115E-05-1.43229702E-05
 2 19 1.57599652E-05-5.78877560E-04-4.69800480E-05-1.91104475E-04-1.57771555E-05
 2 20 3.65114368E-05-2.07342813E-05 2.27849287E-05 1.03387555E-05-2.69630359E-05
 2 21 2.51651897E-06 4.51779668E-06 6.72671749E-06-4.86243832E-06 3.07376307E-06
 2 22 1.51378843E-06 4.63751441E-05-7.00384964E-06-2.58485521E-06-2.30234246E-06
 2 23-2.46073369E-07 2.54841583E-06-4.48167833E-06 2.26053662E-07 2.93048506E-07
 2 24 1.15596782E-05 2.83040253E-05 4.05589303E-04-4.78923773E-05 3.01881752E-06
 2 25-4.31958904E-05-1.34355253E-05 4.85159395E-05-2.34847745E-04-2.91487367E-05
 2 26-1.68824420E-05 4.60311787E-05 1.16137902E-05 3.10007221E-05-1.82060456E-05
 2 27 1.04539856E-04 1.84562934E-04-8.69441854E-04-4.12542682E-05-4.08916188E-06
 2 28 3.40524591E-05 4.64628310E-04 3.12281065E-04 1.15461968E-04-9.81755322E-07
 2 29-1.55171387E-06 2.53346919E-06-8.46987498E-06-2.58982070E-05-3.86526070E-05
 2 30-1.56359902E-04-3.10065516E-04 7.90482379E-04 1.54797044E-04 5.41998212E-05
 2 31-3.89043407E-05 3.31063133E-04-7.49743864E-04 8.47127997E-04-1.23981651E-04
 2 32 1.00593209E-04 2.33884421E-05 7.62773813E-05-1.09535145E-05-2.03130281E-05
 2 33-8.24974424E-06-1.12332517E-05-3.99891520E-05 2.92681947E-06 6.39571231E-06
 2 34-5.61461282E-06-5.85780491E-07-5.11775092E-05-4.57780255E-05 1.37669339E-05
 2 35-1.87396107E-05 4.97267678E-06-8.76681260E-06 3.68281218E-06-6.30644229E-06
 2 36 3.21299172E-05 6.54152336E-05 1.84634204E-04-2.14147535E-05 1.66962062E-05
 2 37 3.53369798E-05-2.99024510E-05 7.14230653E-05 7.78075999E-05-4.37467419E-05
 2 38-2.14984672E-05 6.52452092E-05-2.64242420E-06-4.08192820E-05 1.78346192E-05
 2 39 4.29601904E-05 8.38978290E-05 1.59430224E-04 6.92866534E-06-2.67122837E-06
 2 40-6.00962185E-05 1.52910744E-04 1.17226675E-04 1.11216570E-04-1.28122887E-05
 2 41-6.60963166E-06 1.94219204E-05 5.08959072E-06 1.13770082E-05 3.03135274E-06
 2 42-2.41032071E-05-4.18944919E-05 1.24774111E-04 5.93816686E-06-3.96644953E-06
 2 43 6.50488553E-06-1.87174881E-04-9.50210558E-05-9.67759024E-05 6.50252029E-07
 2 44-1.69096541E-06 1.04071338E-06 3.03389708E-05-7.07460938E-06 2.75560003E-06
 2 45 4.53220506E-05 6.27365290E-05 2.87011048E-03-1.75905661E-04 1.84679423E-04
 2 46-1.09813615E-04-1.43948356E-03 2.79214964E-03-7.61335020E-04 2.23088637E-04
 2 47-1.20777240E-04-1.02311397E-04 1.64650501E-04-5.24522484E-05 4.87535406E-06
 2 48-5.37480996E-07-1.48113071E-06-3.51777451E-05 3.86281655E-06-3.81837637E-06
 2 49-3.15432443E-07-2.15865000E-05-2.43789576E-05 2.12827005E-05 5.52560014E-07
 2 50-1.48278964E-06 9.30229622E-07 3.55925303E-07-1.24876782E-06 1.59349812E-06
 2 51-1.73383488E-06-2.82193617E-06 4.35465756E-05-1.10667274E-06 4.81865074E-07
 2 52 7.61767056E-07-1.35690341E-05 2.38189089E-06-1.19934902E-05 3.32216933E-07
 2 53-5.25573434E-07 1.93356501E-07 2.02018792E-07-4.95718395E-07 2.07093664E-07
 2 54 1.96341932E-07 2.15523600E-07-1.54779168E-05-2.80586454E-07-7.61870975E-07
 2 55-1.38082182E-07 5.48012589E-06 1.39648281E-05 1.64480832E-05 9.34968207E-07
 2 56-4.78910929E-07-4.56057279E-07-1.87929382E-07-1.88246502E-07 3.12889448E-07
 2 57-1.26356601E-06-2.25030642E-06 1.87504726E-05 5.47993666E-07-2.60170143E-07
 2 58-1.21282190E-09-3.51904143E-06-2.83895747E-06 1.09662774E-05-3.91085391E-07
 2 59 3.48315480E-07 4.27699109E-08 1.77955548E-07-4.18359981E-07-7.30631399E-07
 2 60 1.38811552E-07 1.58698717E-07-1.37983607E-05 1.68918023E-07 3.63092248E-07
 2 61 1.14326974E-07-9.74834168E-07-3.80655495E-07 6.34800345E-06 3.66063443E-07
 2 62-1.60288997E-07-2.05774447E-07 3.63639085E-08 1.83000059E-07 2.27471923E-07
 2 63 3.55904929E-07 5.34684190E-07-5.79896025E-06 1.51029942E-07 3.62025424E-07
 2 64 2.21568327E-07 7.70236625E-07-5.30682796E-07-7.12501371E-06 3.78246956E-07
 2 65-1.29759143E-07-2.48487814E-07-4.16898028E-07 9.43794637E-08 2.20293288E-07
 2 66 9.92437633E-09 2.17658994E-08 3.07382358E-06-2.13598619E-08-3.34016454E-07
 2 67 8.31496947E-08-2.11975288E-08-1.67969788E-06 3.29446108E-07 1.74791230E-08
 2 68 1.10633583E-07-1.28112706E-07 1.43401054E-09-3.96516681E-08-5.54535968E-08
 2 69-6.36480683E-08-9.68615278E-08 5.69007128E-06 4.57961812E-08-2.33458587E-07
 2 70-2.38833502E-07-1.04147851E-06-1.77977045E-06-1.02870822E-06-1.04125436E-09
 2 71-3.25743769E-08 3.36156313E-08-1.31863245E-08 3.35535139E-08 7.05595849E-08
 2 72-1.84525542E-05 2.53112509E-05-4.77888955E-06-7.69150907E-06 1.38885475E-05
 2 73 5.82705692E-05 1.24568759E-04 4.56120325E-05 1.96780573E-05-3.28750824E-05
 2 74 1.58818945E-07-3.45901663E-05 5.53890922E-06 1.41893367E-06-5.97133751E-07
 2 75 2.39239459E-05 1.68608847E-04-2.33005898E-05 1.02416179E-05-6.01123803E-05
 2 76-5.73216716E-05-1.68588657E-04-4.12782348E-06 1.55892687E-05 1.83052645E-05
 2 77 2.83030168E-05-1.07373346E-04 2.14418483E-05 1.43663249E-05 5.43467877E-05
 2 78-1.12818352E-06 7.66855760E-05 7.74052227E-06 1.53122691E-05-8.74090314E-06
 2 79-2.41888470E-05 3.82061261E-05 8.33138816E-06 9.65208696E-09 5.47744720E-06
 2 80-3.77554956E-05-1.12272193E-04 1.90139629E-05 2.28266616E-05 2.01415981E-05
 2 81 4.70300813E-06-1.32604256E-05-2.36257941E-06 2.08176330E-06 4.17092024E-07
 2 82 1.06999566E-04-2.29276453E-04-5.86304409E-04-1.76280880E-04 3.59261998E-05
 2 83 7.80555329E-08 2.79144242E-06 1.43359123E-07 1.00045271E-07 3.51195480E-07
 2 84-4.09662941E-06-2.33519265E-06-9.81928285E-08-5.03287118E-07 1.87539195E-07
 2 85-5.91094631E-07 2.49881430E-06 4.64652373E-07 5.23493547E-07-1.40272033E-07
 2 86 1.62507927E-07-3.03923278E-06 1.14290021E-07 9.48762137E-08 1.24462845E-07
 2 87-2.70940306E-07-1.87779338E-06-6.13458785E-08-9.01788648E-08 2.73862708E-07
 2 88-6.42417301E-08 1.34977645E-07 9.54208647E-09 7.75245971E-08-9.01982483E-08
 2 89-9.76302750E-08 3.10325441E-07 8.26538319E-08 1.98929420E-08 1.02454248E-07
 3  1-7.84099221E-06-5.69398055E-05-7.06755605E-05 1.29543070E-04 5.12116928E-06
 3  2 1.73183386E-06 7.83462228E-07 1.52530726E-05 6.87417200E-06 8.17984281E-08
 3  3-4.47586429E-05 6.04554459E-05-6.99435457E-05-8.53229177E-06 3.74326741E-07
 3  4 8.15796503E-06-2.04200987E-05 2.10513692E-05 5.28130831E-07 9.36993468E-07
 3  5-1.15972222E-07-8.21021245E-07 3.06343409E-06-2.99274653E-06-1.69522283E-07
 3  6-8.63599521E-05-6.69866246E-06 2.83379732E-07 6.04776297E-06-8.30224425E-07
 3  7 8.45716671E-07-2.53499476E-05-5.96407830E-06-1.81036306E-05-6.86242067E-07
 3  8 9.80671474E-07-2.94429407E-07-1.26092352E-06-1.79791825E-06-3.64290468E-06
 3  9 2.65316602E-04-1.78439486E-04 5.17906640E-04-3.37116947E-05 7.21869153E-05
 3 10-8.91576625E-06 5.92192054E-04 1.77526866E-04-1.12397400E-04 1.03694457E-04
 3 11-1.04755258E-04 1.06080097E-06-4.40760383E-05 1.46100232E-05 4.60080396E-05
 3 12 1.00145768E+00 2.20731126E-03-6.96842771E-03 8.69143643E-04 1.57765172E-03
 3 13-4.42326474E-04-8.75300909E-04-1.49306396E-03 3.72982260E-04 5.90473426E-05
 3 14 1.40920080E-04-1.99967423E-04 9.78510119E-05-2.22076811E-05-1.35670786E-04
 3 15-1.88465463E-06-2.17279579E-06 1.01706829E-05-1.80429953E-06 2.91409765E-07
 3 16 2.20174386E-07 4.04535496E-06-6.64375463E-06 3.22518187E-06 1.91150280E-07
 3 17-1.00176188E-06 8.10611604E-07-2.37133816E-07 5.04659118E-07 1.06853550E-06
 3 18-3.02851591E-05-5.74368929E-05 6.06161120E-04-1.08895404E-05-3.09300057E-05
 3 19-1.66514100E-05-8.86796458E-06 2.73000830E-04 1.45662187E-04 6.11614208E-06
 3 20-2.77581588E-05 2.16420167E-05-1.07385633E-05 1.36219107E-05-1.29931284E-05
 3 21-1.19292189E-05-2.08152129E-05 1.21041010E-04 5.30097475E-06-1.13235875E-06
 3 22-9.05082221E-07-1.17999843E-04 4.12887180E-05-5.69869044E-06 3.21964956E-06
 3 23 2.65168181E-07-3.48481774E-06 1.16722012E-06-1.61090047E-06-1.08495492E-06
 3 24-2.13009881E-05-4.18880593E-05 3.90536349E-05 2.21888863E-05-1.62399579E-05
 3 25 8.22059910E-06-1.54261630E-05 6.46465923E-05 7.07932321E-05 1.13875817E-05
 3 26 7.69210661E-06-1.90796883E-05 3.56846485E-07-1.54947528E-05 4.57071940E-06
 3 27-6.41948500E-05-1.06968323E-04 7.58876438E-04 4.86322288E-06-6.81388443E-06
 3 28-2.61161374E-06-4.04550500E-04-4.10834186E-04 9.58382129E-05 1.66923726E-06
 3 29 1.66518094E-05-1.83210467E-05 2.25222758E-05-4.66693305E-05 1.27407552E-05
 3 30-2.10143802E-05-6.57691836E-05 3.93219569E-05 9.06515096E-05 9.08195227E-07
 3 31-3.35584322E-06-7.50856189E-04 1.28640026E-03-6.22837051E-04 3.94475764E-05
 3 32-1.56830573E-05-2.37645191E-05-2.50295320E-04 1.01894690E-04-2.77458029E-05
 3 33 1.96361611E-05 3.17618439E-05-2.94955108E-04-6.48041885E-07 4.39881488E-06
 3 34 9.07668654E-06-2.92999452E-05-1.88150783E-04 1.13083758E-04-9.69927196E-06
 3 35 9.25086058E-06 4.48411374E-07 4.93500088E-06-9.30265277E-06 1.11529428E-05
 3 36-4.21823248E-05-7.34313464E-05 4.42525497E-04-7.68945581E-06-9.27414642E-06
 3 37-4.43317981E-06 5.17349059E-05 1.82562060E-05 1.57486178E-04 2.03868840E-05
 3 38-1.31495939E-05-7.23729008E-06-1.26641444E-05 3.10628814E-06-1.60486672E-05
 3 39 7.09337865E-05 1.25976199E-04-5.72241046E-04-4.18789863E-05-2.85541138E-05
 3 40-1.82729492E-05 1.11060988E-04 2.80135990E-04 5.35616218E-04 6.27241857E-06
 3 41-4.69027506E-06-1.58214351E-06 1.15306530E-06 4.07875131E-06 6.02503913E-06
 3 42 3.42116193E-05 5.74619117E-05-1.37196463E-04-1.89891694E-06 1.33591684E-06
 3 43-2.29128053E-05 1.27007965E-04 7.01755543E-05 2.37360985E-04 1.73809953E-05
 3 44-4.95073969E-06-1.24302557E-05-2.48701122E-05-2.81459972E-06-2.53841225E-05
 3 45 1.79874203E-04 1.60173269E-04 2.14816925E-03 4.45695665E-05 1.14915021E-04
 3 46-7.55719967E-05-1.52073393E-03-2.90101793E-03 1.07606789E-03 1.89341310E-04
 3 47-3.80416622E-04 1.91075312E-04-5.70686050E-04 1.77230758E-04 1.90965456E-04
 3 48 5.19889099E-07 8.86026250E-07 7.25607516E-05-2.14026406E-06 5.61658880E-07
 3 49 1.87656626E-06 6.98122810E-06 4.69207508E-05-2.87699257E-05-3.55086429E-06
 3 50 4.30200917E-06-7.51144881E-07 1.45411607E-06 4.82255441E-07-2.79318248E-06
 3 51 2.88271698E-06 4.87215851E-06-6.79281628E-05 8.48531430E-07-4.69340863E-07
 3 52-8.44618358E-07 1.39106932E-05-2.18104845E-05 1.92184769E-05 3.55087575E-07
 3 53 2.95569375E-07-6.50656950E-07 8.86146195E-07 1.90154702E-07-7.93353455E-07
 3 54-2.32097837E-06-4.27417636E-06 1.65485808E-05 1.03975117E-06 2.12020835E-07
 3 55 5.52326795E-07-1.62194437E-05-4.13448968E-05-1.28745424E-05-1.09985737E-07
 3 56 2.33659088E-07-1.23673351E-07 7.01057324E-07-2.26512396E-07-5.82143593E-07
 3 57-7.17336807E-07-1.44579368E-06-2.13569940E-06 6.71243947E-07 1.85956811E-07
 3 58-6.71915006E-07 1.42774845E-06 9.16052380E-06 2.44661175E-06-1.54990771E-07
 3 59-5.96844024E-07 7.51834794E-07-2.19333719E-07 6.16566189E-07 7.05140739E-07
 3 60-1.62431871E-06-2.85089643E-06 3.55182221E-05 4.12419914E-07-3.99974064E-07
 3 61 1.31258068E-07-3.79280248E-08 2.89741220E-06-2.04996311E-05-9.99940844E-07
 3 62 3.20944253E-07 6.78996591E-07-1.03001694E-07-2.31830812E-07 1.94137136E-07
 3 63-2.96933306E-07-5.19638533E-07-4.46235351E-06-2.11245568E-08-2.44986883E-07
 3 64-2.32552755E-07 6.04740686E-07 1.72793745E-07 7.48131840E-07-3.54679168E-07
 3 65 5.10259572E-07-1.55580404E-07-4.76471748E-08 1.15910665E-07-1.08697433E-07
 3 66 2.58259218E-07 3.70624302E-07-1.57490614E-05 6.36277761E-08 4.98520584E-07
 3 67-2.61596487E-07 2.25764624E-06 6.57471263E-06 5.09094676E-06 1.98784742E-07
 3 68-1.19396021E-07-7.93887210E-08-3.77683581E-07-8.97497238E-08-8.98737752E-08
 3 69-2.36662089E-07-4.00124636E-07 5.78500253E-06 2.83452212E-08 1.06867285E-07
 3 70 3.71253267E-07-8.82629472E-07-3.17564351E-06 1.38965643E-06-1.64649803E-07
 3 71 9.14478989E-08 7.32019037E-08 2.36191931E-08-2.56759572E-08-6.94525497E-08
 3 72-6.19205179E-06-1.48545187E-05 7.83377777E-07-3.78571720E-06-3.44715155E-06
 3 73-6.29080380E-05-1.26126113E-04 1.41735838E-05-1.03626137E-04 2.09627594E-05
 3 74-1.68418460E-05-4.89257750E-05 2.15210535E-06-5.58821373E-07-1.75300971E-06
 3 75 1.28320732E-04 1.49829647E-05-1.97610337E-06 2.23000561E-06-1.81720060E-05
 3 76-5.98391025E-05-2.27974590E-04 1.14857682E-05 6.68051537E-10 2.16733060E-06
 3 77 1.17542177E-04-4.65107316E-05-5.80606912E-06-5.17798897E-06-3.45884845E-05
 3 78-2.22422785E-06-1.16280136E-04-4.83424090E-07-7.14517646E-06-8.64895167E-06
 3 79 6.07521862E-05 4.53162248E-05-1.33342337E-05-8.92370540E-06-6.19771535E-06
 3 80 1.98166117E-05 1.45220882E-04-5.43521043E-06-1.93507168E-05-1.91406744E-05
 3 81-1.08507209E-05-1.39584343E-05 6.72398188E-06 3.56412855E-06-1.65677041E-06
 3 82 1.19504912E-04 6.47968993E-06 9.52840109E-07 6.53742124E-05-1.35697738E-05
 3 83-5.86892210E-08-5.10555781E-06-3.72009425E-07 6.21040290E-07-3.28077509E-07
 3 84 5.49218617E-06 8.53249334E-07-1.02777925E-07 1.27295694E-06-3.67020800E-07
 3 85-5.06735025E-08 4.47408446E-06 1.95771625E-07-3.02648834E-07-8.38753551E-08
 3 86-6.71680495E-09 7.77149130E-06 1.95298335E-07-7.63928246E-09 1.18430478E-07
 3 87 3.88124335E-07 5.49117034E-07 1.15693185E-08 5.26805452E-08 5.52916577E-08
 3 88 8.77502623E-08-1.98142944E-06-1.04466967E-07-3.14821558E-07-8.46852735E-08
 3 89 6.69222169E-08 8.09572126E-07 3.29779301E-08 6.96412475E-08-1.18225273E-07
 4  1-1.21895925E-06-9.03259957E-06-1.10303009E-05-1.83592598E-04-1.70565223E-06
 4  2 4.38511822E-06 4.81892216E-06-7.91091707E-06 8.47015514E-06 1.22147890E-05
 4  3 8.11475089E-05 3.64374300E-06-3.38978318E-05-1.54986779E-05-5.43578386E-06
 4  4 2.09344617E-05 2.04840813E-05 1.76198857E-06 1.13549075E-05 2.56497798E-06
 4  5 9.02877419E-07-3.46785540E-06-2.86011428E-06-1.81571913E-07-1.87722482E-06
 4  6 1.00148906E+00 2.26262144E-03-6.92534732E-03-6.22142421E-05-3.66612859E-04
 4  7 1.86230568E-03 7.78888851E-05 2.73411724E-04-1.52185649E-03-7.23191035E-05
 4  8-1.75210248E-04 2.47529351E-04-1.13899816E-04-2.84716775E-05-1.16819796E-04
 4  9-1.92966447E-06-1.05554336E-05 1.37061838E-05-5.31795491E-06 1.74973840E-06
 4 10 1.66416880E-06 3.27329470E-05 7.33601691E-06-1.64143654E-05-9.65687764E-08
 4 11-1.06215021E-06 1.15871899E-06-2.94423822E-08-1.75933024E-06 5.34956528E-06
 4 12 7.77538618E-05-9.77855227E-06 4.39265812E-05-1.05997274E-05 1.08266045E-05
 4 13 1.06846125E-06 5.41281591E-05 7.32283302E-06-1.29002156E-05-3.11129057E-06
 4 14 6.31674882E-06-3.20545825E-06 3.49782182E-06-2.44211483E-06-4.20283988E-06
 4 15 2.79024424E-06 6.93708500E-06-1.16043824E-04 5.54671581E-06-3.06898399E-06
 4 16 1.82964367E-06 1.82849549E-05-2.54234539E-05 1.07751914E-05 8.64577156E-06
 4 17-2.20417912E-06-6.44159245E-06 2.77665212E-06-1.07253327E-06-2.33418858E-06
 4 18-7.85857416E-05-1.41889844E-04 1.51973101E-03-1.19790255E-05 5.01759170E-05
 4 19 1.04136402E-05 8.99492440E-04-8.94900899E-04 2.37104311E-04 1.53150134E-04
 4 20 3.20237160E-05-1.85173850E-04-1.38427967E-04 1.97522576E-05 3.63203932E-05
 4 21-1.55324386E-05-3.17974320E-05 3.06206144E-04 3.36345428E-06 1.68064043E-05
 4 22-2.48170366E-05 1.67453916E-05 6.24240305E-05-2.83821431E-05-2.00584435E-05
 4 23-9.20401934E-07 2.09788454E-05-4.40374659E-05 3.58223158E-05 1.61112117E-05
 4 24-6.46584832E-05-1.24986293E-04-9.62769249E-04 1.82726744E-05 2.11739858E-06
 4 25 1.03364571E-04 1.19073654E-04 6.37010924E-04 1.19973244E-04-2.46191285E-05
 4 26-3.83194776E-05 6.29386060E-05-2.29971307E-05-3.72554675E-05-6.84958352E-05
 4 27 1.17642949E-05 1.79895568E-05-2.46443249E-04-6.59621171E-06-3.70230267E-07
 4 28 1.75470639E-05 2.69125070E-04 1.70938376E-04 5.16903680E-05 8.60867095E-06
 4 29 1.38558849E-06-9.99425944E-06-1.65833096E-05-9.11203043E-06-1.24856095E-05
 4 30-1.78272176E-06-2.73753164E-06 1.03811615E-03 3.90693165E-05-4.13479540E-05
 4 31-2.18729782E-05-2.34279411E-04-8.94612267E-05 1.69020406E-04 4.61734123E-05
 4 32-4.68911341E-05 7.17721791E-07 2.91102691E-05-1.74746690E-06 4.21276392E-05
 4 33-4.17267397E-05-5.82803232E-05 2.71129350E-03-3.08268835E-05 6.38049088E-05
 4 34-4.63284255E-05-1.90774533E-03 5.23507810E-04 1.27521103E-04 2.33886237E-04
 4 35-1.79779353E-05-2.15908302E-04-1.43403728E-04 2.59318245E-05 2.96797212E-05
 4 36 3.82014895E-04 4.95041128E-04-5.15409261E-04 1.11778959E-05-6.31776506E-05
 4 37 1.59702532E-04-1.17627905E-04 1.20829476E-03-4.52656563E-03 4.78109230E-04
 4 38 4.21567603E-04-8.99676834E-04-2.60088560E-05 3.15865435E-05 3.23441063E-04
 4 39-1.22989626E-06-8.39328132E-07 1.42239085E-04 4.92195273E-06-1.16568376E-06
 4 40-1.03298811E-05 1.56210310E-05-1.85101162E-06-4.33177293E-05-2.10685279E-06
 4 41-3.82426295E-06 5.93111574E-06-3.98021686E-06-7.46234126E-07-4.79586073E-07
 4 42-1.06582504E-06-2.85404787E-06-7.12992687E-05 4.07291111E-06 5.14455913E-06
 4 43 6.03481561E-06-8.53232367E-05-9.60679907E-06-9.08697902E-05 3.03829662E-06
 4 44-1.60277178E-06-1.43552484E-06 8.12999810E-06-7.79043224E-06-3.15169280E-06
 4 45-1.55617814E-05-3.33686629E-05-3.42041100E-04-2.65524320E-05 4.06691817E-06
 4 46-1.02155522E-05-1.92655684E-04-1.52887241E-05-1.91088717E-05-1.73318257E-05
 4 47 1.16888929E-05 5.64293286E-06-3.98352937E-05-1.22312854E-05 9.72872061E-06
 4 48-3.86118152E-05-7.06569403E-05 1.53659550E-04 3.39612414E-05-1.51689037E-05
 4 49 8.89736656E-06-5.51508350E-04-5.61171502E-05 7.78509221E-06 2.14877136E-05
 4 50-6.27909496E-06-1.52086186E-05 3.31762216E-06 6.75588973E-06-1.08763010E-05
 4 51-1.20883561E-05-2.16612021E-05 2.79914516E-04-5.68307613E-06-5.41348589E-07
 4 52-4.56902151E-06-1.36944268E-04-1.10142995E-04 1.13306680E-04 4.56585780E-06
 4 53-2.89741668E-06-1.66844112E-06 5.48068543E-06 2.37520567E-08 5.31568599E-07
 4 54-1.79570589E-05-3.48138633E-05 6.51771846E-06 5.81081633E-06-4.18434606E-06
 4 55 2.57187676E-06-4.48554236E-05-9.81100875E-05-6.26426486E-05 8.08964235E-06
 4 56-3.34250522E-06-4.74713713E-06 2.05153143E-07-2.11972891E-06-5.83333350E-07
 4 57-1.19368143E-05-2.28010447E-05 3.38677908E-05 6.36776602E-06 9.74056327E-07
 4 58-4.14935394E-06-1.93747760E-05 1.03295214E-05 2.08628842E-05-8.58132434E-07
 4 59-3.49983413E-06 4.35796656E-06-5.96100336E-07 5.33977015E-07-2.01614219E-07
 4 60-1.33730902E-05-2.45713496E-05 1.60186179E-04 6.96547930E-06-6.50914745E-07
 4 61 2.53249820E-06-2.59149911E-05-9.81755072E-06-9.18368736E-05-3.69861201E-06
 4 62 2.92132181E-06 7.77290201E-07 4.44182095E-07 3.58826776E-07 3.86557900E-06
 4 63 1.97387473E-07-1.30216574E-07-2.98955992E-05 1.21796479E-06-1.23299636E-06
 4 64 1.06030245E-07 5.33786285E-06-2.51103614E-06-1.70847059E-05 4.61323077E-07