#PLAN A: REQUIREMENTS FOR FULLY IN-MEMORY TRANSFORMATION: 20291109428
 $SYSTEM MWORDS=12150 MEMDDI=2850 $END
 $CONTRL MAXIT=200 SCFTYP=RHF RUNTYP=ENERGY ISPHER=1 UNITS=ANGS
  EXETYP=RUN COORD=UNIQUE ICHARG=0                   $END
 $BASIS gbasis=CCD                                   $END
 $SCF DIRSCF=.TRUE.                                  $END
 $SCF DIIS=.TRUE.                                    $END
 $SCF SOSCF=.FALSE.                                  $END
 $STATPT NSTEP=1000                                  $END
 $GUESS GUESS=MOREAD                                 $END
 $ELMOM IEMOM=0                                      $END
 $DATA
 norethisterone HF/CCD local minima geometry
C1
O     8.0     4.68247604    -0.68873006    -0.62464309
O     8.0    -5.50290632    -0.85522670     1.37053967
C     6.0     1.43420208     0.77791977     0.20257279
C     6.0     2.23144197    -0.23372617    -0.64451939
C     6.0     0.03286756     1.05933785    -0.33997685
C     6.0    -0.75649899    -0.27481925    -0.41539425
C     6.0     1.45372784    -1.55443645    -0.69443733
C     6.0     3.58966208    -0.23355483     0.12941919
C     6.0     2.41360998     1.94152391     0.42028186
C     6.0     0.01622235    -1.35015976    -1.19887149
C     6.0    -2.17436051    -0.00103422    -0.98655641
C     6.0     3.80734563     1.26906133     0.45294920
C     6.0    -0.71406156     2.10686803     0.49475300
C     6.0     2.51116276     0.25719449    -2.07986236
C     6.0    -2.14795494     2.33326936    -0.00433730
C     6.0    -2.85440993     1.00837827    -0.08163980
C     6.0    -3.08271933    -1.21269119    -1.24026382
C     6.0     3.51869154    -1.02378547     1.38935995
C     6.0    -3.74872231    -1.73490274     0.02926441
C     6.0    -3.91935301     0.71718866     0.66595232
C     6.0    -4.51052284    -0.63819063     0.74103343
C     6.0     3.50738859    -1.66594207     2.39557791
H     1.0     1.29102743     0.30542201     1.18057871
H     1.0     0.11757206     1.45819867    -1.35723782
H     1.0    -0.87015784    -0.63707727     0.61384553
H     1.0     1.41156900    -1.99041784     0.30479392
H     1.0     1.95949733    -2.28395414    -1.33465779
H     1.0     2.20345902     2.48406959     1.34185386
H     1.0     2.35328293     2.66658831    -0.39415625
H     1.0     0.01714671    -1.09582245    -2.26272488
H     1.0    -0.50346124    -2.30584216    -1.11896849
H     1.0    -2.02320194     0.49171999    -1.95356083
H     1.0     4.47410202     1.67489541    -0.30560696
H     1.0     4.30654716     1.38728619     1.41241562
H     1.0    -0.17191476     3.05448580     0.47729751
H     1.0    -0.75039619     1.78232539     1.54002774
H     1.0     3.07268977     1.18955922    -2.10459709
H     1.0     3.10245728    -0.48294193    -2.61722851
H     1.0     1.59124899     0.41643047    -2.63858080
H     1.0    -2.11858773     2.78911281    -0.99924934
H     1.0    -2.67969131     3.01978016     0.65466404
H     1.0    -2.54246664    -2.01189494    -1.74493039
H     1.0    -3.86810994    -0.89570570    -1.93256688
H     1.0     4.66633558    -1.63395083    -0.66430211
H     1.0    -3.00136590    -2.11452866     0.73421717
H     1.0    -4.43762016    -2.55284929    -0.17873283
H     1.0    -4.38137341     1.46235180     1.30159545
H     1.0     3.49572277    -2.23338270     3.29541016
 $END
--- CLOSED SHELL ORBITALS --- GENERATED AT Wed Jun 24 03:21:07 2015
 norethisterone HF/CCD local minima geometry
E(RHF)=     -922.2346692398, E(NUC)= 1897.5518913492,   13 ITERS
 $VEC
 1  1 1.00153357E+00 2.36622246E-03-7.62007584E-03-1.06668038E-03-9.54600442E-04
 1  2 6.09164870E-04 2.12059560E-03-4.63370046E-04-1.30186351E-03-1.63686543E-04
 1  3 1.77070441E-04-1.33838976E-05 9.29576616E-05 1.98610496E-04-5.22968548E-05
 1  4 3.27719390E-07 3.28070511E-07 3.28205292E-06 5.48703839E-07-3.00354673E-07
 1  5 6.96820832E-07-8.73298378E-06 6.86769731E-06 1.99711737E-06-6.28840550E-07
 1  6 1.29251351E-07 4.99589198E-07-9.32852376E-08 1.11409194E-06-3.31470654E-07
 1  7-1.10872395E-04-1.96627058E-04 1.00322706E-04-8.70425476E-05 1.21650328E-05
 1  8-3.76219307E-05 2.40993657E-03-5.73444285E-04 6.94392779E-04-1.96065355E-05
 1  9-1.57472674E-05 3.53538029E-05-4.83829293E-05-3.42964211E-05 1.96764971E-05
 1 10 7.39605492E-05 1.06781133E-04-9.00611983E-04-4.38065124E-05-6.91716433E-06
 1 11-1.89131938E-05-9.68801716E-04-5.76269694E-04 9.64912002E-05-1.24077158E-04
 1 12 3.41390797E-05 8.99380784E-05 6.38857684E-05 3.68991048E-05-2.94128649E-05
 1 13-8.33835701E-05-1.42548635E-04 1.90530726E-03 2.82364293E-05-5.93400091E-06
 1 14-1.05654868E-05 7.68201558E-04-3.81633709E-04 5.88870182E-04 4.52788513E-05
 1 15-1.92530426E-05-2.60258088E-05-3.08503211E-06 4.10529865E-05-9.85629213E-06
 1 16 1.22151892E-05 1.95397453E-05-3.69768803E-04-2.32233770E-06-9.85989793E-06
 1 17-4.45586519E-06 4.52176646E-05-2.83004860E-04-4.63908535E-05 1.23951381E-06
 1 18-5.84110558E-06 4.60159177E-06-1.42541761E-05-7.87427335E-06-8.36523822E-06
 1 19 4.72496725E-05 8.98904545E-05-1.96864551E-04 3.57368319E-05 1.10960837E-05
 1 20 4.63607144E-06-7.20643236E-04-2.48719694E-04-1.87346306E-04 3.45026936E-05
 1 21-3.91743651E-05 4.67167152E-06-1.18685271E-05 2.30360200E-05-2.01293723E-05
 1 22-9.34536952E-05-1.31738381E-04 3.64918115E-03 1.71182891E-04-4.67083384E-05
 1 23-1.06642717E-04 3.37898996E-03-1.08880771E-03-3.21706307E-03 5.44605537E-05
 1 24-3.61135192E-05-1.83470345E-05-8.40438807E-05-8.04098293E-05 4.43383816E-05
 1 25-2.36487518E-05-4.43556232E-05-9.35740385E-04 3.56275414E-05 3.80713524E-05
 1 26 4.14846239E-05-3.13234288E-04 1.92842905E-04-5.78099773E-04 6.65796365E-05
 1 27-2.91622851E-05-3.74173514E-05-1.46607450E-05-1.97337574E-05 5.34730615E-05
 1 28 5.73758478E-05 9.93831809E-05-7.04943595E-04-2.66310456E-06 3.20673917E-06
 1 29 1.92361822E-07-3.83592518E-04 3.83312983E-05-2.30805665E-04-2.95687042E-05
 1 30 4.24189861E-06 2.53268055E-05 5.79887673E-07-1.72950306E-05 9.35606107E-07
 1 31-2.53250447E-05-4.31294750E-05 3.78358972E-04-6.90330160E-06-1.36966072E-05
 1 32-4.41981690E-07 1.76035120E-04 4.21660096E-04 2.29114124E-04 1.05357683E-06
 1 33 7.49583006E-07-1.80315984E-06 2.78849437E-07 3.77384748E-06 8.86278869E-06
 1 34 5.53229563E-05 8.59726007E-05-1.07440487E-04-1.48319303E-05 4.17910145E-05
 1 35-1.84847919E-05-7.46993789E-04 5.96484575E-04 8.33046877E-04 5.81705437E-05
 1 36-6.65285729E-05 8.35802921E-06 1.15079945E-04-9.51468378E-05-1.10046113E-04
 1 37-1.57745626E-05-3.03569860E-05-2.08529549E-04-2.29630262E-05 1.64060528E-05
 1 38 4.72550480E-07 2.55737361E-04-8.31252711E-06 3.90893827E-05-4.49954284E-07
 1 39-7.28381709E-06 7.73377138E-06 7.39588959E-06-6.93789538E-06 9.59169563E-06
 1 40 4.63277162E-05 7.16576769E-05 5.45555124E-05 2.77860335E-05 2.03649527E-05
 1 41 1.91993014E-05-1.49944242E-04-7.23337826E-05 1.12413011E-05-5.84500765E-05
 1 42 5.54828761E-05 2.96720038E-06-7.27283970E-06-8.09819314E-05 3.96712019E-05
 1 43-3.16163734E-05-5.44494656E-05 4.34478717E-04 2.73979434E-06-3.27928890E-06
 1 44 7.08626260E-06 2.30485332E-04-1.17953541E-04-5.32762952E-05 8.22781439E-06
 1 45-4.37602175E-06-3.85179263E-06-1.12404296E-05 7.44874646E-06 4.68739173E-06
 1 46-3.40651712E-06-7.32092471E-06-5.18236294E-05 1.32461959E-06 2.11586475E-06
 1 47-1.60697971E-07-3.99947828E-04 2.50128563E-05 3.09843636E-04 9.80020686E-06
 1 48-3.52234014E-06-6.27786672E-06 4.06659722E-06 1.31057374E-05-5.82134400E-06
 1 49-1.16277694E-06-9.04356154E-07 2.08198465E-04 7.64221633E-06 2.48532883E-06
 1 50 4.60017678E-06 3.46251823E-05 1.18194045E-04-3.63324771E-05 2.85262234E-06
 1 51-5.21770266E-06 2.36508033E-06 5.01129924E-06-7.28965470E-07-6.46544388E-06
 1 52-6.59476824E-05-1.38131506E-04-4.31425109E-04-7.91823095E-05 1.99002054E-05
 1 53 9.25424547E-05-6.27060382E-04 1.12947668E-03-8.73551337E-04 1.59527507E-05
 1 54 8.12704643E-05-9.72232149E-05-1.10189659E-04 8.08885200E-05-2.70619340E-05
 1 55 4.82145623E-06 8.27208782E-06-6.74978076E-05 7.90739863E-07 1.17960553E-07
 1 56 1.27074893E-06 4.50323754E-05-7.07411795E-05-4.41518528E-05 3.45936416E-06
 1 57-4.48670505E-07-3.01069365E-06 4.85461756E-06 1.80392593E-06 4.87181567E-07
 1 58 1.17365917E-05 2.04068473E-05-3.59381122E-04 1.53529524E-06-1.83957178E-06
 1 59 3.38648258E-06-1.93999300E-04-8.20266571E-05 1.11335546E-04 2.74765850E-06
 1 60-1.39879346E-06-1.34886504E-06-1.05823078E-06 4.48618313E-06-8.38482121E-07
 1 61-1.73325071E-06-2.19973333E-06 5.29105095E-05-7.47971646E-07 3.03525080E-06
 1 62-6.56353270E-07 5.35329265E-05-9.37874816E-05-4.10157047E-05 2.21576650E-06
 1 63-7.73206586E-07-1.44255991E-06-1.41406605E-07-2.73531092E-06 4.48215600E-07
 1 64-1.64249661E-05-2.20219599E-05 1.39154935E-03-1.35173751E-05 2.39457807E-05
 1 65-6.83736418E-06 1.95854225E-04 2.52728955E-04-6.71684501E-04-2.97329237E-05
 1 66 7.81635824E-06 2.19165655E-05 1.09326924E-05 1.56321480E-05-4.27053829E-05
 1 67-1.50088431E-04-2.91161450E-04-1.10220398E-04 3.84767815E-06 2.19679487E-06
 1 68 1.85215239E-05 1.67105174E-04-1.22827619E-05 2.38364581E-06 6.15722784E-06
 1 69-1.33797017E-06 6.01600657E-05 7.50431870E-06 5.50592401E-06-4.54666455E-07
 1 70 4.97916335E-05 2.52532453E-05 6.22362860E-05 1.06199447E-05 1.23446408E-06
 1 71 7.55047501E-05 8.07848650E-07 3.17812219E-05 1.98450028E-05 2.30853258E-05
 1 72 1.09589293E-04 1.53295205E-04 7.95723953E-06-2.59982432E-08 1.14608473E-05
 1 73-1.04715174E-05-1.32405931E-04 1.86835735E-05-6.96625657E-06 4.45342682E-05
 1 74 4.44634301E-06-6.96945355E-05 1.30095242E-05 1.26929724E-06-6.98839006E-06
 1 75 3.09796283E-05-7.50884453E-05 4.21043806E-06-6.86216722E-06 4.27141156E-06
 1 76-2.18519823E-05 8.51656789E-06-3.66101206E-06-1.77026207E-05-4.58957860E-06
 1 77-1.44938651E-05 1.65028796E-04 5.58992477E-05 7.84998419E-05-2.67801441E-05
 1 78 2.68712101E-05-2.16957930E-04 3.33847129E-05-2.59801409E-05-3.41665132E-05
 1 79-9.46808519E-06-6.34502543E-05-1.80072206E-05 1.32272776E-05-4.13514510E-06
 1 80-2.32151975E-05 6.59833558E-05-1.23064926E-05 3.48614062E-06-3.30566847E-06
 1 81 4.71326545E-05-1.97243045E-05-1.12339227E-05 2.74446859E-05-6.66783322E-06
 1 82-7.99001050E-05 7.84809369E-05 7.29878652E-06-6.79227516E-07-1.80977702E-05
 1 83 4.29174109E-05-6.13251464E-05 4.23755759E-05 6.06224884E-06 1.62105355E-05
 1 84-3.26850992E-05-1.34893157E-05-8.21404541E-06 7.55597835E-07 2.05867718E-06
 1 85-7.10121727E-06 6.83383922E-05-2.79397210E-06 3.56683439E-06 6.09911394E-07
 1 86 4.54551612E-06 7.03540359E-06-4.48326490E-06-4.48939159E-07 5.14787195E-06
 1 87-1.82989820E-05-1.32503781E-05-5.19878383E-07 7.55387427E-07 3.01245567E-07
 1 88 5.22289201E-05-2.80654599E-04-7.58420214E-05-6.25616513E-04 2.40029953E-05
 1 89 5.54814762E-06-2.70542235E-05-7.52642671E-07 1.00673312E-06 2.95095505E-06
 1 90-4.63171210E-06-4.07790383E-06-2.97766234E-06 1.09862700E-06-1.21194185E-06
 1 91 7.46342511E-06-2.29294540E-05 5.14672845E-06 2.46109935E-06-9.80236351E-07
 1 92-1.72665353E-05 1.70828486E-04-2.90737661E-05 3.54614834E-06 3.94772714E-05
 2  1 7.17687317E-07 1.53979987E-06-1.33799824E-05 3.78845419E-07 3.09441534E-07
 2  2-1.98399311E-07 4.94681931E-06-5.43044671E-06-1.95077767E-07-2.15939216E-07
 2  3 1.37225092E-07 7.87141232E-08 3.76439243E-07 2.65801015E-07 5.29093372E-08
 2  4 1.00142673E+00 2.12585798E-03-6.92298089E-03 1.46248510E-03 3.11890388E-04
 2  5-9.21967731E-04-1.44108529E-03-3.32538549E-04 8.93583622E-04 5.52396415E-05
 2  6 5.55761852E-05-1.10815827E-04 5.84705117E-05-2.42188274E-04 4.10732990E-05
 2  7 6.81584312E-06 1.12737395E-05-1.37764421E-04-6.50853245E-07-6.08621436E-07
 2  8 5.80073579E-07 6.34518592E-05 5.56221473E-05 4.87987330E-05-3.86736437E-06
 2  9 1.44425546E-06 2.42310891E-06 4.41977712E-06 2.40421661E-06-3.61673933E-06
 2 10-1.53331017E-06-3.18674556E-06-4.47374224E-05 4.04910068E-06-3.27159315E-07
 2 11 2.18114331E-06-1.19938247E-04 4.74895143E-05 2.59178369E-05-1.39841990E-08
 2 12 1.90253792E-06-1.88855372E-06-3.37404312E-06-5.21996191E-06 3.51725647E-06
 2 13-9.24007515E-07-2.30107563E-06 1.41660385E-05 2.58554128E-06 7.91176928E-06
 2 14-5.10092895E-06 7.61926558E-05 3.86862343E-05 1.34932183E-04 2.54191544E-06
 2 15-7.01928021E-06 4.47736477E-06-6.13674289E-06-3.44896384E-06 3.35085741E-07
 2 16-7.40534086E-06-1.09061794E-05 1.10338021E-04-2.00342549E-05 1.43428853E-06
 2 17 6.40286816E-06 9.89525801E-05 5.89338957E-05-1.52122597E-04 1.26750978E-05
 2 18 1.10488700E-05-2.37239678E-05-1.92722644E-06-1.13070169E-06 8.72845939E-06
 2 19-1.28404663E-06-2.29739770E-06-3.66912793E-06-3.04019297E-06-2.10764381E-06
 2 20 3.46871651E-07 4.15817556E-05 3.16425397E-05-2.41650220E-05 1.06778852E-06
 2 21-9.55702427E-07-1.12086090E-07-1.32381466E-06 9.83118825E-07 1.20253972E-06
 2 22-5.57511697E-06-9.36106010E-06 1.06932972E-04-1.29386542E-06 5.30026278E-07
 2 23 6.57726864E-07-3.17127510E-05-2.07901478E-05-4.51599716E-05 1.46271388E-06
 2 24-2.79140178E-06 1.32868790E-06 7.46663228E-07 2.83496553E-06 4.44055451E-07
 2 25 1.15735668E-06 2.18187420E-06-5.35395708E-06-1.46718405E-06 9.69701039E-07
 2 26 1.60804783E-07 5.32314933E-05 3.84381053E-06-6.67384835E-06 1.07187589E-06
 2 27-1.03663924E-06-3.52366480E-08-2.77431658E-06-3.58987438E-07 2.25457250E-07
 2 28 1.29642306E-06 1.02027452E-06-5.28137214E-05 8.39477933E-06-1.12897244E-06
 2 29-9.26499352E-06-5.89893770E-06-1.29328268E-04 2.54187850E-05 1.49947281E-06
 2 30-7.81245279E-07-7.18227535E-07 8.20978123E-06-8.83619447E-07-4.45324840E-06
 2 31 5.99081189E-05 9.79655981E-05-1.00082935E-03 2.10163750E-05-2.16550530E-05
 2 32-1.68264218E-05 3.24892791E-04-2.32928408E-04-1.87650806E-04-9.80023946E-07
 2 33 6.64147200E-06-5.66144805E-06 2.63968850E-06 4.07088329E-06-2.58084230E-05
 2 34 3.19581766E-06 5.46326415E-06-3.82510131E-05 5.72690861E-07 3.88108593E-09
 2 35-2.92042405E-07 2.90255129E-05-1.60713793E-05 1.29897629E-05-1.80814053E-06
 2 36 6.59247998E-07 1.14889254E-06 1.22910550E-06 3.54492839E-08-9.09157480E-07
 2 37-2.95405926E-06-6.52601138E-06-3.03806370E-05 5.82750560E-06-2.26890259E-06
 2 38 5.50424783E-06-4.79177489E-05 7.54186908E-05-1.66941460E-05-3.28866970E-06
 2 39-1.40315240E-07 3.42898494E-06 9.87884820E-06 3.64262798E-07-4.48072651E-06
 2 40-2.05953817E-06-4.14765705E-06 9.45370448E-06 2.09160587E-06 3.63749537E-07
 2 41-8.69014616E-07 2.63656407E-06-2.23137960E-05 2.74173336E-05-1.94823199E-06
 2 42-2.74628652E-06 4.69451852E-06-3.20646691E-06 3.25102851E-06-3.80864471E-06
 2 43-2.93782843E-05-4.51218740E-05 6.97785658E-04-2.37740115E-05-4.54820740E-05
 2 44-1.68742063E-06-2.87398355E-04-3.05489791E-04-9.64833036E-06-8.38744966E-06
 2 45 2.72114143E-05-1.88239646E-05 4.35436753E-05 1.78022344E-05-8.58899091E-06
 2 46-1.74752207E-06-6.22466521E-06-1.23977131E-03-1.41065869E-06 7.26928386E-05
 2 47 1.14644596E-05 4.47642949E-04-8.45926539E-04-6.74217357E-04 2.05519701E-05
 2 48-6.31622931E-05 4.26103230E-05-1.05914686E-04-7.10149433E-05 5.35762154E-05
 2 49-5.17399163E-05-9.06365539E-05-2.81584989E-05 3.32133410E-05-2.07111346E-05
 2 50-2.55952019E-05-2.92047522E-04 4.21289811E-04-8.62194075E-05 2.26262242E-05
 2 51 1.89169888E-05-4.15432129E-05 9.25239272E-06-3.43637014E-05-2.51604989E-05
 2 52 7.63618453E-07 1.35951318E-06 2.97282474E-05-6.22852305E-07-2.75362260E-07
 2 53 8.28066736E-08 8.32672822E-06-1.29314670E-05 3.95921048E-05 1.36321180E-07
 2 54 1.03075354E-06-1.16707472E-06 5.12818175E-07-6.01958945E-08-3.83882289E-07
 2 55-7.76036636E-05-1.55271752E-04 1.25258630E-03 6.36897188E-06-2.91402465E-05
 2 56-4.67123759E-05 6.37778261E-04 6.34929589E-04-1.28182784E-04-1.29805888E-04
 2 57 2.52749758E-04-1.22943870E-04 1.54757675E-04 1.11717347E-04-1.73971492E-06
 2 58-8.09623302E-05-1.52929412E-04 1.51670930E-03 1.14842482E-05 8.34787426E-05
 2 59 3.10125601E-05 1.24581114E-03 1.93116585E-05-9.05631361E-04-1.15431288E-04
 2 60 1.21187089E-04-5.75580136E-06-2.53949675E-04-6.65885255E-05 2.50792553E-04
 2 61 3.01687048E-04 4.09164566E-04 1.89980060E-03 1.33680438E-04 3.32383251E-05
 2 62-9.56940946E-05-3.06317744E-03-3.43025350E-04 2.06322728E-03-4.18445945E-04
 2 63 4.37759391E-04-1.93134463E-05-1.76432763E-04 4.48152930E-04 1.89936516E-04
 2 64 1.01490510E-06 1.70476979E-06-4.60746001E-05-5.56142245E-07-5.50487885E-08
 2 65 1.74434230E-08-1.62218194E-06-1.52072880E-05 1.84891968E-05 5.95557146E-07
 2 66-3.09958757E-08-5.64561270E-07-4.93849044E-07 2.69689145E-07 1.21735621E-06
 2 67 2.19649389E-06-1.21896196E-06-1.50029431E-06-2.51330404E-06-4.42592874E-07
 2 68 1.86014379E-05 2.21043526E-05-1.32209879E-06 1.88315072E-06-1.54345760E-06
 2 69 3.43336446E-05 7.26848719E-05-3.25196366E-06 3.79296166E-06-1.06980390E-05
 2 70 4.97875080E-06 1.96241735E-05-1.20263034E-06-1.14739744E-06-2.06523787E-06
 2 71-3.73901621E-06-2.31477522E-06-5.93234164E-07-2.09140091E-06 2.01018634E-06
 2 72 3.80042939E-06 8.18558192E-07-2.54189104E-06 5.75613002E-07-1.51215245E-07
 2 73 3.29211806E-06-1.25100113E-05-2.02847944E-06 9.83648841E-07 3.88766378E-08
 2 74 2.02282286E-05-3.05757308E-05 1.05909201E-05 9.85147224E-07-6.63558133E-06
 2 75-1.70167740E-05-5.17656352E-05-7.79655487E-06 1.41384404E-07 9.05622330E-07
 2 76 4.78205831E-05-3.05545858E-06-1.93288385E-05 6.97508937E-06 5.45837890E-06
 2 77 2.68742256E-06-1.64410067E-06-7.39731473E-07 1.23091945E-06-5.43614748E-07
 2 78 4.29766089E-07-6.44033963E-06-8.40694459E-07-2.79267243E-07 1.88148587E-07
 2 79-1.25374206E-05 3.33666260E-05-8.14088616E-06 3.60374555E-07-2.38321720E-07
 2 80 1.09951834E-05-7.18970271E-06 2.02516329E-06-4.48601526E-06 3.74348452E-06
 2 81 4.75228549E-06 1.08371065E-05-6.53695803E-07-2.36513785E-06-8.80194581E-07
 2 82 1.62682265E-06-9.65934545E-07 5.61730902E-07 1.89744916E-06 1.02169225E-06
 2 83-5.72840993E-06 3.12943782E-05-2.09708411E-06-1.77606830E-06 1.03520417E-06
 2 84-4.35498068E-05 9.17537582E-06 1.33296052E-05 1.07942597E-05-2.30471634E-07
 2 85-9.16639950E-06-6.18975975E-06 5.23353492E-06-1.17023507E-05-4.26646639E-06
 2 86 4.65387619E-05 2.02373452E-04 3.01670662E-06 1.69188318E-07-3.32124071E-06
 2 87-4.58092325E-05-2.25815816E-04-4.52822602E-07-1.68463894E-05-1.98597617E-05
 2 88-3.04519550E-06-2.43467701E-06 8.31826813E-07-5.66145789E-07-6.45983267E-07
 2 89-3.28604987E-05-2.33792826E-04-1.81808075E-05-1.80250053E-05 2.27423652E-05
 2 90-9.66710594E-05 1.60945750E-04-6.92522626E-05-6.82235725E-05-2.46194669E-05
 2 91-1.39287623E-04 1.96254993E-04-8.31197928E-05 8.77577629E-05 1.01934292E-04
 2 92 4.96091988E-07-6.11379543E-06-3.47484115E-10 7.52981494E-07-5.91455167E-07
 3  1 1.15448002E-06 2.21471788E-06-1.51931080E-05 4.09707509E-07 9.23227690E-07
 3  2 1.95387246E-07 1.76990412E-06-1.24137359E-05-7.73846352E-07-3.19755562E-07
 3  3 5.10797309E-07-1.91041747E-07 3.42886344E-07-3.00737587E-07 2.20147987E-07
 3  4-4.90220828E-05 7.61244999E-04-2.81932243E-03 3.11434768E-04 6.87626683E-05
 3  5-1.90224780E-04-9.40370557E-04-1.87179353E-04 6.04191957E-04 1.31539872E-04
 3  6-1.57781822E-04 2.62419496E-05 4.95464996E-05-9.99536691E-05-6.55406271E-05
 3  7 2.17703529E-05 3.53848803E-05-3.30011227E-04-2.19202957E-06-1.05705020E-06
 3  8 9.77714005E-07 1.36916208E-04 1.60827254E-04 1.34844141E-04-8.27885766E-06
 3  9 3.85457003E-06 4.42428764E-06 2.68224961E-06-4.50821259E-06-3.11867677E-06
 3 10-1.05222160E-05-1.69424155E-05 1.49110007E-04 6.77955529E-07 6.20181730E-07
 3 11-3.02445437E-06-1.66279921E-04-4.84425904E-06 1.56694994E-04 4.21255526E-07
 3 12 6.24574106E-06-6.66699659E-06 9.64331001E-08-5.79182051E-06 3.07244151E-06
 3 13 9.15694794E-06 1.50632933E-05-7.92141860E-05-1.98081461E-06 1.12180842E-05
 3 14-2.80942831E-06 2.52452498E-04-7.21829479E-05 2.16597523E-05 6.13263264E-06
 3 15-1.11064999E-05 4.97386727E-06-1.19395163E-05 3.81762314E-06 4.84691652E-06
 3 16 5.96437856E-05 9.43121896E-05-7.69947276E-04-1.17984492E-05-1.64722047E-05
 3 17-4.31612654E-06 3.74349759E-04 2.86234481E-04 3.40345369E-04-1.23957014E-05
 3 18 2.40763871E-05-1.16806857E-05 1.94502764E-05-1.33299240E-05-2.87013767E-06
 3 19 8.97558541E-06 1.44356090E-05-1.46366670E-04 1.40443649E-06-2.01937346E-06
 3 20 4.93807024E-06 2.73118769E-05-3.96896528E-05-9.22494536E-05-2.60281702E-06
 3 21-1.17269372E-06 3.77551074E-06-7.11468024E-06-1.47179177E-06-2.18011863E-06
 3 22 1.41165626E-05 4.70598932E-06-6.88513835E-06 1.01337948E-06 3.40124018E-07
 3 23 2.71360550E-06 2.22768295E-05-3.58056929E-06-7.53944246E-05-2.17225719E-06
 3 24-1.19253324E-06 3.36479044E-06-9.22088512E-08 2.62869128E-06 9.53784485E-07
 3 25 4.17603405E-06 7.00217431E-06-6.56015419E-05-2.55218765E-06 3.40834728E-07
 3 26 1.54652753E-06 7.22020290E-05 2.46958054E-05-3.76164462E-05-5.44141198E-07
 3 27 2.24265693E-07 3.19875504E-07-2.66362755E-06 5.92485487E-07 1.18449050E-06
 3 28-3.39941189E-05-5.24537298E-05 5.16981324E-04-4.65463580E-06 1.69394180E-05
 3 29-1.92825244E-08-2.11600186E-04-6.94729753E-05 1.15506837E-04 3.45416847E-06
 3 30 8.05908008E-06-1.15132486E-05 1.56725746E-06-1.48095946E-05 2.66094919E-07
 3 31-6.03718459E-05-2.85750172E-05-2.86463053E-04 1.63080365E-05-1.61134377E-05
 3 32-2.90222687E-05 1.00126428E-03-3.40478584E-04-1.26008366E-04-2.06384838E-05
 3 33 4.59063039E-05-2.52678200E-05-1.09203845E-05 3.56543241E-05 1.48933708E-05
 3 34 2.62048288E-06 4.20990783E-06-2.15377477E-05 6.34488584E-07-6.93384804E-07
 3 35-8.74685775E-07 1.66619914E-05-2.29726997E-05 2.58960010E-05-2.61261384E-06
 3 36 8.67467836E-07 1.74514600E-06 1.58014581E-06-7.53607996E-07-9.18732315E-07
 3 37-1.34716845E-05-1.88368668E-05 1.88449237E-04 4.36186718E-06-7.78297217E-06
 3 38 3.88447960E-06-1.68285153E-05 6.41558074E-05-1.36989689E-04-3.70478868E-06
 3 39 5.28130648E-06-1.57651780E-06 4.54872095E-06 4.45532086E-06-3.55363643E-07
 3 40-3.92622895E-06-6.42154387E-06 6.61701609E-05 1.90800609E-06 9.60394773E-07
 3 41 1.54877532E-06 2.47171779E-06-4.49705904E-05 5.27558153E-05-3.13602659E-06
 3 42-1.65572676E-06 4.79175335E-06-2.66501646E-06 8.00320276E-07-3.45247633E-06
 3 43-3.88185403E-05-8.97406649E-05 5.96939561E-04 8.01864728E-06-1.12909368E-06
 3 44-8.19881718E-07-3.46899397E-04-2.70420146E-04 5.76694953E-05-1.05302634E-05
 3 45 9.35575455E-06 1.17450888E-06 7.11563658E-06-5.51445866E-06-1.95803114E-05
 3 46-6.68012665E-05-1.35887345E-04-6.60365262E-04 4.28110024E-05 5.92423705E-05
 3 47-2.85951940E-05 1.34126327E-04-6.51890723E-04-5.01585789E-04-3.54698149E-05
 3 48 6.43799580E-05-2.89101432E-05 1.51406605E-05-7.79315821E-05 3.39450926E-05
 3 49-1.85308309E-04-2.53199414E-04 3.52253868E-04 1.09670555E-04-4.56013522E-05
 3 50-5.27828776E-05-7.75926353E-04 6.67724459E-04 4.73766022E-04-2.92644464E-05
 3 51-1.63443284E-06 3.08988793E-05-6.63400849E-05-1.16695430E-04 5.76704963E-05
 3 52 3.98259280E-06 6.47050470E-06 5.97001699E-05-5.61435774E-07 1.23072987E-06
 3 53-2.15658128E-07 7.22471860E-06-3.77410298E-06 1.42270448E-05-2.21760295E-06
 3 54 2.60356651E-06-3.85963556E-07 1.10478975E-06-1.06657139E-06-7.82140294E-07
 3 55 3.77943217E-03 8.13134212E-05 1.52802680E-03-8.23393604E-05 3.67378076E-05
 3 56 8.55130674E-05 1.32025605E-04 1.09062719E-03 2.99065885E-04 4.31870730E-05
 3 57-1.06103385E-04 6.29163123E-05 4.74084296E-05 1.82279740E-04-9.34174782E-05
 3 58 3.81011085E-03-2.20793944E-04 3.23876473E-03-5.05814924E-05-9.88647622E-06
 3 59 8.77367639E-06 6.25660700E-04-1.37097074E-03-7.05413996E-04 6.79535396E-05
 3 60-2.29515905E-04 1.61562365E-04-1.44138352E-04 9.74529399E-05-5.21353757E-05
 3 61 1.00205382E+00 4.11328223E-03-7.06202387E-03-3.91001606E-04-4.22243698E-05
 3 62 2.80143964E-04-3.53370704E-03-8.62842074E-04 2.15025687E-03 3.98260711E-04
 3 63-1.41607662E-04-2.56653049E-04 2.59405499E-04-7.59044009E-04-4.55200891E-05
 3 64 1.30223589E-06 1.92848110E-06-3.75646465E-05-4.95887455E-07-1.62739433E-07
 3 65 1.29352717E-07 1.69175522E-07-1.29389345E-05 2.16068559E-05 1.61401189E-06
 3 66 7.56969030E-07-2.37098092E-06-2.85818099E-07-3.95165293E-07 2.08823669E-06
 3 67 6.52772452E-06 4.68893422E-06-3.71722257E-06-4.42261211E-06-2.01836177E-06
 3 68 2.14548116E-05-1.61435518E-05-1.02617549E-05 4.87562442E-06 7.51996281E-07
 3 69 3.06927500E-05-1.07146617E-04 1.13524865E-06-1.11560885E-05-9.68989020E-06
 3 70 1.60321026E-05 4.96536659E-05 2.07998962E-07 1.57082000E-06 5.00410348E-07
 3 71-8.30810359E-06 9.25704628E-06-4.14452129E-06 2.07621620E-06 2.70142113E-06
 3 72 9.41042181E-06 1.11346850E-05-2.30469833E-06 7.59616734E-07 8.19890428E-08
 3 73 7.26414571E-07-2.63969704E-05-2.94952177E-06 1.78943609E-06 3.87115987E-07
 3 74 2.32627603E-06-5.13928730E-05 1.89653315E-05 7.23723986E-06-7.10429181E-06
 3 75-4.54079331E-05-2.18709402E-04-1.73424331E-05-1.34110276E-05 4.25091400E-06
 3 76 2.84771336E-05-1.42382094E-05-5.48772969E-05 8.56251251E-06 1.40627475E-05
 3 77 3.25489044E-06-9.86850827E-07 6.65307408E-07 2.13354885E-06-3.80281620E-07
 3 78-1.73496610E-06-9.82168416E-06-8.97705650E-08 2.37576682E-07-2.62293249E-07
 3 79-3.25224849E-05 8.17362003E-06-4.81342949E-06 2.87931313E-06 6.32930281E-06
 3 80 2.08126137E-05 3.17824894E-05 1.10609975E-06-4.13939910E-06 1.79539187E-06
 3 81 4.76675088E-06 1.94206954E-05-1.62671282E-06-1.97951058E-06-2.18733987E-07
 3 82-3.15593203E-06-9.32352936E-06 2.06943820E-06 1.91414803E-06-8.26693515E-08
 3 83-7.85874881E-06 4.89232890E-05-2.57813342E-07-2.52850990E-06 8.19654263E-07
 3 84-3.86670026E-05 3.68394702E-05 1.97161007E-05 4.40338169E-06-7.67637798E-06
 3 85-2.84800907E-05-1.89601132E-05 1.73585451E-06-1.22029259E-05 2.85884236E-06
 3 86 9.00236167E-05 5.05485678E-04 2.61071743E-05-2.74556971E-05 6.13814027E-06
 3 87-1.74135686E-04 7.35002566E-05 7.61116366E-05-3.14776263E-05 1.21851904E-05
 3 88-4.72876196E-06-8.85566011E-06 5.86309687E-07-1.92443476E-06-6.60525141E-07
 3 89-1.81704847E-04 4.99432088E-04-1.16932291E-04 9.94611615E-05 8.39381526E-05
 3 90 9.47858082E-05 2.22074398E-04 1.42427992E-05 2.03152012E-05 5.08782740E-05
 3 91 8.31773885E-05 4.57644863E-04 2.64462963E-05-1.25542683E-05-5.90291761E-05
 3 92 1.12874033E-06-7.77711629E-06-3.72226178E-08 8.86503343E-07-1.21657340E-06
 4  1 2.31883943E-05 2.67945292E-04 4.85810768E-04-1.83694237E-04 1.12620788E-04
 4  2 1.23616870E-04 1.09038025E-05-3.71995770E-05 4.25542229E-05-5.06730823E-05
 4  3 1.98492849E-05 3.08237974E-05 6.37093688E-05 1.82098308E-04-3.15592677E-05
 4  4-1.75563667E-06-3.31835566E-06 1.65144643E-05 1.19983005E-06-5.73051526E-07
 4  5 1.64139392E-06-8.43267270E-06 4.06529331E-07-3.96223582E-06-5.47656000E-07
 4  6 2.19687619E-07 3.27968381E-07-5.56648784E-07 1.12696526E-06-8.79039069E-08
 4  7-3.75765685E-04-5.41024179E-04 2.13541807E-03-8.56738339E-05-8.01690041E-06
 4  8-3.00394612E-05 3.36368631E-03 3.39929681E-04 3.37393211E-04 9.78374539E-05
 4  9 9.77002246E-07-9.88144562E-05-7.91695303E-05 4.04611003E-05 6.87636450E-05
 4 10 3.53407414E-03-1.65433086E-04 5.07252438E-03 2.83583003E-04 2.43337075E-06
 4 11 1.66808437E-04 3.14401651E-03-1.86322329E-03 1.57049476E-03 1.31925183E-04
 4 12-8.92752790E-05-4.26499043E-05 2.36533633E-05 2.29332157E-04-8.59479725E-05
 4 13-1.50011870E-04-2.67607149E-04 2.15578911E-03-4.73532113E-05 2.33533915E-05
 4 14-1.45021021E-05 1.04331078E-03-1.22091118E-03 1.51419376E-04 2.01985582E-05
 4 15-8.28298361E-06-1.19155746E-05-3.96600111E-05 1.81704868E-05-1.24876981E-05
 4 16 6.63704109E-05 1.05490058E-04-1.78713053E-03-4.62948231E-05-2.65077696E-06
 4 17-3.45774188E-05 1.33865743E-04-3.39392402E-04 7.51041304E-04-3.09366558E-05
 4 18 3.47896619E-05-3.85300607E-06 3.01129535E-06 1.57976835E-05 3.05442117E-06
 4 19 9.19829933E-06 8.87060410E-05-1.93019437E-03-7.50698091E-05-6.24623217E-05
 4 20-5.88963799E-06 1.21085889E-04-5.35619607E-04 5.55796308E-05-5.86765712E-05
 4 21 3.51814997E-05 2.34950715E-05-6.40497287E-05-1.14189589E-06-9.29202126E-06
 4 22 1.00359411E+00 6.80156779E-03-2.70354739E-02 5.08808312E-04-5.26903118E-04
 4 23 2.05040881E-04 3.55005217E-03 1.82102176E-03-4.83883447E-03-5.10910476E-05
 4 24 7.83107801E-05-2.72197325E-05-1.09386281E-04-2.08928123E-04 6.68022302E-05
 4 25 4.59296922E-05 1.38903288E-04-3.04532577E-03-1.57055681E-05 7.26678138E-05
 4 26 1.61583968E-05 1.17191489E-04 1.43745427E-03 5.47983923E-05 4.28453009E-05
 4 27 4.17368489E-05-8.45821498E-05-5.71360422E-05 1.39089975E-05 2.65343923E-05
 4 28-1.53207243E-04-2.73350147E-04 1.63631130E-03-2.12732537E-05-2.37246530E-05
 4 29 2.25691173E-05 7.61859687E-04 6.34509789E-04 1.58966570E-04 7.54039429E-05
 4 30-2.62144771E-05-4.91894658E-05-9.66831379E-07 4.75056695E-05-3.49503150E-06
 4 31-8.38196705E-05-1.36376721E-04 8.70776255E-04 1.28328401E-05-1.74255217E-06
 4 32 1.36876038E-05 8.55915619E-04 1.77685049E-04 9.44590760E-05 5.02113443E-05
 4 33-2.73565197E-05-2.28548246E-05-1.98059278E-05 1.83113081E-05 3.29616955E-06
 4 34 3.24634829E-03-3.71796520E-05 4.97582238E-03-9.86055113E-05-4.18196488E-04
 4 35-7.33515913E-05-8.43960628E-04-1.72804471E-03 5.20414033E-05 5.63267510E-05
 4 36-4.59523496E-05-1.03744014E-05 6.47199216E-05-3.66323325E-05-9.08101151E-05
 4 37-4.81846949E-05-7.61937000E-05 3.48622615E-04-1.56468692E-05 2.82425009E-06
 4 38 4.26610979E-06 4.60990302E-04-8.23298429E-05-2.38452218E-04-2.45249712E-06
 4 39-5.50605934E-06 7.95855647E-06 5.76435341E-06-1.27277983E-05 1.37097304E-05
 4 40-8.46798682E-05-9.60310498E-05 2.43347163E-04-4.04425199E-05 2.21417334E-05
 4 41-4.14581200E-05-4.51434593E-04 2.24306373E-04-1.86339297E-04 1.05164565E-04
 4 42-9.03147642E-05-1.48498006E-05 4.01230642E-06 5.60049131E-05 2.40991833E-05
 4 43-4.15729173E-05-6.72804655E-05 4.75934517E-04-5.57649779E-06-8.75028684E-07
 4 44-6.86065851E-07 1.84237941E-04-1.94821127E-04 1.03404162E-04 8.58350014E-06
 4 45-3.70996828E-06-4.87353186E-06-1.48963489E-05 6.28800544E-06 3.27488318E-07
 4 46-1.13213658E-05-1.49937922E-05-7.84118524E-06 1.26777622E-06 3.24127308E-06
 4 47 9.57618257E-06-3.33286824E-04-1.30419524E-04 1.26785670E-05 4.50343902E-06
 4 48-1.67915589E-06-2.82428313E-06-4.27461401E-07 1.66202914E-05 2.01176832E-06
 4 49-2.80800751E-05-4.50393401E-05 3.09141212E-04-1.59218961E-05-8.74401810E-06
 4 50 7.88944926E-07 8.03044018E-05 1.76252576E-04 1.25091387E-04-6.96481976E-06