 $SYSTEM MWORDS=13000 MEMDDI=1884 $END
 $CONTRL MAXIT=200 SCFTYP=RHF RUNTYP=ENERGY ISPHER=1 UNITS=ANGS
  EXETYP=RUN COORD=UNIQUE ICHARG=0                   $END
 $BASIS gbasis=CCD                                   $END
 $SCF DIRSCF=.TRUE.                                  $END
 $SCF DIIS=.TRUE.                                    $END
 $SCF SOSCF=.FALSE.                                  $END
 $STATPT NSTEP=1000                                  $END
 $GUESS GUESS=MOREAD                                 $END
 $ELMOM IEMOM=0                                      $END
 $DATA
 aspartame HF/CCD local minima geometry
C1
O     8.0    -1.29008019     2.50909567    -1.16263998
O     8.0     2.02005625     0.01437174    -2.49609256
O     8.0     0.38581663     1.80735326     0.09905012
O     8.0     2.65896535     0.40476975     2.61855221
O     8.0     1.30169296    -1.12556016     1.80313516
N     7.0     0.42247736    -0.65566981    -1.05615950
N     7.0     3.91674018    -1.69195580    -1.45479715
C     6.0    -0.54561603     0.30039117    -1.52981198
C     6.0    -1.97681260    -0.26864234    -1.55017483
C     6.0     2.75433302    -1.32889819    -0.67164177
C     6.0    -2.53702807    -0.67975670    -0.20275001
C     6.0     1.70426655    -0.58682978    -1.50618911
C     6.0    -0.41751930     1.60397935    -0.75064999
C     6.0     3.20258832    -0.44585937     0.50238299
C     6.0    -2.34784222    -1.97047317     0.28682360
C     6.0    -3.26133776     0.22241816     0.57506269
C     6.0    -2.85568047    -2.34651232     1.52239811
C     6.0    -3.77183342    -0.15086289     1.81011200
C     6.0     2.26665854    -0.43825331     1.67886639
C     6.0    -3.56855845    -1.43697608     2.28955126
C     6.0    -1.22453499     3.78977156    -0.55462950
H     1.0    -0.27836460     0.54910439    -2.55434322
H     1.0    -2.62712049     0.47667331    -2.00486422
H     1.0    -1.95971572    -1.13146067    -2.21624899
H     1.0     0.31100318    -0.97230107    -0.11156450
H     1.0     2.31114364    -2.23664546    -0.26327506
H     1.0     4.16053200    -0.82375324     0.86294574
H     1.0     3.37007761     0.58634877     0.19165954
H     1.0    -1.79995143    -2.69186234    -0.30566162
H     1.0    -3.43502021     1.22497368     0.20645604
H     1.0     3.65340400    -2.37685347    -2.14328337
H     1.0     4.20417452    -0.88828868    -1.99051738
H     1.0    -2.69527030    -3.35351157     1.88410068
H     1.0    -4.33429623     0.56380749     2.39661169
H     1.0    -3.96731472    -1.72967243     3.25170755
H     1.0    -1.40546656     3.71359420     0.51543230
H     1.0    -2.00041699     4.38289928    -1.02879095
H     1.0    -0.24872510     4.24042416    -0.72200549
H     1.0     2.02517819     0.37002239     3.32684278
 $END
--- CLOSED SHELL ORBITALS --- GENERATED AT Wed Jun 24 03:04:42 2015
 aspartame HF/CCD local minima geometry
E(RHF)=    -1024.0021100981, E(NUC)= 1775.1699301659,   12 ITERS
 $VEC
 1  1-2.07067982E-04-6.69904328E-06 2.92820771E-05-2.15658797E-06-2.22114796E-06
 1  2-1.88052353E-06 2.44583002E-05 9.51600208E-06 2.18781318E-05 1.25495800E-06
 1  3-1.24791957E-06-7.03843080E-09-3.63604695E-07 1.16357620E-06-1.51686893E-06
 1  4 1.59133448E-05 2.25217469E-05-9.85055567E-05-4.55208163E-06-3.97268611E-06
 1  5 1.85317967E-06-3.33867679E-06 1.19652644E-05 2.45583118E-05 1.47611210E-06
 1  6-6.14229700E-06 4.66618490E-06-1.98122504E-07-5.42013764E-06-6.55945512E-06
 1  7-3.00251627E-05-3.71078795E-05 1.99837819E-04 1.50488735E-05-1.48625001E-05
 1  8 2.01750221E-05-1.16765472E-04 5.83510123E-05-1.28968061E-04 4.46192044E-06
 1  9-1.04645619E-05 6.00264144E-06-3.16959367E-07 1.71401822E-05 2.24891462E-06
 1 10 1.00140271E+00 2.17578330E-03-6.36916835E-03-1.27306200E-03-9.36757382E-04
 1 11 4.49231301E-06 9.08412039E-04 1.32921095E-03 1.14185974E-03 5.14749679E-05
 1 12-6.80670203E-05 1.65920523E-05-2.25106846E-05-1.35934328E-04-7.62224583E-05
 1 13-4.63112421E-04-1.79760964E-04 3.62906827E-04-6.13817691E-05-4.61415856E-05
 1 14-9.21742775E-06 7.77059250E-05-2.66313187E-04-5.15994101E-04 1.32133419E-05
 1 15-5.82039955E-05 4.49906536E-05-3.87136523E-05-9.78842568E-05-4.00206284E-05
 1 16-2.75681004E-05-4.99502497E-05 3.13548040E-04-2.01956050E-06-2.72527097E-05
 1 17-5.77567291E-06-9.43515649E-05 1.56451079E-04 5.23811169E-05-1.07202760E-05
 1 18 8.36260154E-06 2.35767451E-06-5.74262323E-06 4.36965966E-06-1.18676702E-06
 1 19-6.68093744E-05-1.15950905E-04 8.63348909E-04-2.58976049E-06 6.57170224E-06
 1 20-9.88574253E-07-3.24916326E-04 4.86172122E-05 9.83419020E-05 1.75564880E-05
 1 21-1.25067823E-05-5.04970565E-06-4.46089783E-06-1.91550454E-05 3.16096296E-06
 1 22 2.92816785E-05 4.87482352E-05-5.05379977E-04-1.65155334E-05 1.07841993E-05
 1 23-5.24029403E-06-6.31526690E-05-6.18257758E-05-2.01598695E-04-1.67976084E-07
 1 24 1.58219122E-06-1.41421514E-06 6.83008227E-06-2.01788209E-05 6.73437848E-06
 1 25-7.82693352E-07-4.26489126E-07 6.82901740E-05 8.32079758E-06 4.36704796E-06
 1 26 7.09082107E-07 1.00313319E-05-1.10336215E-05 5.00530005E-05 2.21689844E-06
 1 27-3.43476674E-06 1.21786829E-06 5.46368747E-06 2.24522956E-07-3.02610529E-06
 1 28-5.25172260E-05-1.03718856E-04-4.68435576E-04 2.83613767E-05-1.83504185E-05
 1 29-7.72386255E-05-8.91780422E-04 9.69663472E-05 8.11003073E-04-3.40854937E-05
 1 30 3.39461480E-05 1.39345674E-07 6.63483400E-05 1.74529177E-05 4.99901286E-06
 1 31-5.46774194E-06-1.02317103E-05 3.43047021E-05-1.59806445E-06-5.97588857E-07
 1 32 5.38061532E-07-2.06498025E-05 1.74502855E-05 5.37792893E-05 3.74577701E-06
 1 33 5.00446175E-07-4.24622318E-06 1.06076947E-06-3.76505681E-07 7.36869275E-07
 1 34-1.07473045E-05-2.02912634E-05 7.15479560E-06-7.27072812E-07-1.72793083E-05
 1 35-9.47975367E-06 1.97681983E-04 2.53380539E-06-2.33922154E-04 4.14057732E-05
 1 36-7.78599871E-06-3.36197745E-05-2.36858914E-05-6.89966699E-06 2.13092615E-05
 1 37-4.27162131E-05-8.12488484E-05 1.12744331E-04-3.26900097E-05-6.74983414E-06
 1 38-3.14090826E-05-4.91003861E-05-3.00543615E-04-1.53936735E-04-8.53288101E-06
 1 39 9.69861645E-06-1.16573545E-06-8.95754648E-06-1.92628134E-05-7.32917749E-06
 1 40-7.06827116E-05-1.53830710E-04 5.69545264E-05 6.85623608E-05 1.20609622E-05
 1 41-7.66633806E-05 5.74329344E-05-4.83562811E-04-5.82297906E-04 6.28850210E-05
 1 42 6.17142841E-05-1.24599305E-04 9.25937557E-05 6.74323206E-05-4.78875162E-05
 1 43-5.53061234E-07-1.36273352E-06-1.57929305E-05-9.03137844E-07-7.72429489E-07
 1 44-1.21088551E-06 8.56369572E-06-7.16576640E-06-1.20957069E-05 8.55359241E-08
 1 45-2.89455190E-07 2.03919266E-07-7.29047721E-08 6.93399468E-07-5.96929850E-07
 1 46 1.92610416E-06 3.13333519E-06-4.10514860E-05-7.37094091E-07-3.36167753E-08
 1 47-1.72079716E-07-2.60762914E-05 3.12172524E-05 2.36620692E-05-4.85757048E-07
 1 48 4.00447980E-08 4.45712250E-07 5.57824546E-07 1.96476652E-06 2.02144074E-07
 1 49-2.84288273E-07-5.88850988E-07 1.08181434E-05-1.19275956E-06-3.31333710E-07
 1 50-5.18246907E-09 4.24091164E-06 9.30416826E-06-8.36399274E-06-3.72199384E-07
 1 51-3.51855747E-07 7.24055131E-07-2.37989434E-07 1.08727743E-07 2.14418703E-07
 1 52 8.48452386E-07 1.63601868E-06 7.06193216E-06 2.20108853E-07 3.56949677E-08
 1 53-7.74862335E-07 2.25711635E-06-2.29668894E-05 1.18562032E-05-2.67937691E-07
 1 54-1.15521603E-07 3.83459294E-07 1.76867323E-07 6.37745492E-07 1.89446756E-07
 1 55 1.18768671E-04 1.95186536E-04 2.75333865E-03 6.42956393E-05 1.40867378E-04
 1 56 1.68680404E-04 9.37660732E-04 1.97673022E-03 2.07138012E-03 9.87367100E-05
 1 57-1.21046452E-04 2.23097423E-05 2.39637409E-05-2.27617939E-04-1.12815331E-04
 1 58 1.31007217E-06 2.26492213E-06-2.59590315E-05 2.17564016E-08 2.81126853E-07
 1 59-1.87345430E-07-3.20141991E-08-1.58944300E-05 7.38683490E-06 1.15643992E-07
 1 60-2.72418400E-07 1.56774407E-07 6.27586139E-07 7.01707043E-07 2.98463341E-07
 1 61-8.31275757E-06-1.51920842E-05 2.30805457E-05-1.92344868E-06 4.69202247E-06
 1 62-9.34643977E-08 2.37220127E-05-5.06044213E-05 3.35604897E-07-1.20501207E-06
 1 63 5.56707686E-06-4.36206479E-06-5.20274606E-06 9.21975146E-07-2.66574882E-07
 1 64 1.17194150E-05-3.49973198E-05 7.91369615E-07 1.60866489E-06 3.52431052E-06
 1 65-5.55689554E-07 6.15833156E-06-1.04798713E-06-1.96595815E-06-1.18762429E-06
 1 66-3.17061114E-06 5.24558313E-06-1.42008225E-06 1.84851046E-06 4.83905109E-07
 1 67-1.18568360E-05-1.12112156E-07 1.19750481E-05 1.09350384E-05 3.03846313E-05
 1 68-1.44998134E-04 6.21245964E-06 4.87889860E-05-2.82441987E-05-2.16523066E-06
 1 69-4.75140765E-05-1.41749167E-04 4.52682283E-05-1.04201218E-05-2.40249531E-05
 1 70-3.71061645E-05-1.10986267E-05 2.29222216E-05 3.26682125E-05-4.08182690E-05
 1 71-5.97756652E-07-5.57745278E-06-2.49179356E-07 2.12860833E-07 5.19726515E-08
 1 72-8.91836080E-07-1.01656971E-05 5.88865694E-07-3.47436600E-07-1.24920577E-06
 1 73-6.50681868E-05 4.90663630E-05-1.49151726E-05-1.44119898E-05-9.64349685E-08
 1 74-2.48137175E-05 5.92565171E-05 1.27173839E-06 2.11621129E-05 1.20421121E-05
 1 75 5.91389478E-07 4.34578156E-06-6.54381383E-07 2.94928440E-08-6.97108492E-08
 1 76 1.10790084E-06 1.59286597E-06-1.54753103E-07 7.54252044E-07-4.79625487E-07
 1 77 2.32372436E-07-3.04644511E-06-4.43867527E-08 5.81775452E-07-9.02713514E-08
 1 78-2.34166112E-06 1.96369638E-05 1.22971782E-06-1.78083203E-06-4.99925138E-06
 1 79 2.81570769E-06 1.55318841E-05-2.19920287E-07 2.45297336E-06 7.59530135E-07
 1 80-1.88579544E-06 1.79287063E-05-2.96757190E-06-4.05592073E-06-3.40499254E-07
 1 81 8.43300063E-05-2.20629624E-04-4.63137150E-04-8.22395755E-05 4.24658922E-04
 2  1 1.00151332E+00 2.36592084E-03-7.46415551E-03 1.01364982E-03 1.45986166E-04
 2  2 1.00787996E-03-1.43804433E-03 1.77625896E-04-1.26130286E-03 3.59952719E-05
 2  3-7.17513872E-05 3.57561153E-05 3.09496525E-05-5.41484732E-05-5.13770207E-05
 2  4 1.97115254E-05 3.03958366E-05-1.45326698E-04-5.16820856E-06-5.19704147E-06
 2  5-4.46385872E-06 5.15840318E-05 1.57723582E-05-5.30713029E-05-1.03222516E-06
 2  6 8.43751021E-06-7.40528504E-06-5.92034404E-07 7.04700698E-07 8.78612734E-07
 2  7-4.23788723E-04-1.46169424E-04 4.41405319E-04 2.65162287E-05 1.44498544E-05
 2  8 3.54361699E-05 2.81329577E-04-6.19259380E-04-5.11103179E-05-6.80060509E-05
 2  9 5.66295106E-05 1.13765403E-05 6.98417418E-05-3.36908393E-05 9.77870694E-05
 2 10 1.99902992E-04-6.64274774E-06 2.38261589E-05-1.63340989E-06-8.05169257E-07
 2 11 2.09413275E-06 1.22977403E-05-2.93254869E-06-2.31906365E-05-3.77597066E-07
 2 12 1.34922180E-07 2.42674885E-07-9.22356285E-07 5.32920481E-07 1.25992381E-07
 2 13 2.73486064E-06 4.93104927E-06-1.89132265E-05-1.74984172E-06-1.36103303E-06
 2 14 1.67606512E-06 1.78319726E-05 6.98118066E-06-6.22543265E-06 3.40526381E-07
 2 15 1.85581042E-06-2.19633680E-06 2.27830385E-06-2.53737204E-06 2.52008102E-07
 2 16-1.65521753E-05-3.71129809E-05-5.61791458E-04 2.00666412E-06-5.52742677E-05
 2 17-2.18223788E-05 4.61867743E-05 8.48843960E-05 2.55618851E-04-2.25676107E-05
 2 18 1.07182227E-05 1.18493880E-05 7.84322960E-06 1.17046692E-05 1.63312144E-05
 2 19 6.31190298E-06 1.12339543E-05-8.57074792E-05-2.94911131E-08-3.01751169E-06
 2 20 2.11322263E-06 4.52178157E-05 2.78451797E-05-2.98045662E-05-4.73912981E-06
 2 21 3.80867212E-06 9.30457688E-07-4.56012142E-07 2.01110571E-06-3.46597495E-06
 2 22-3.07383710E-05-8.16659263E-05 7.43313366E-05-2.44579981E-05-1.06041386E-04
 2 23-8.96605535E-05 7.28231770E-04-8.09709819E-04 4.93804521E-04 9.04254097E-05
 2 24-1.30929015E-04 4.05036055E-05 3.01923280E-05 8.11839320E-05-7.89142900E-05
 2 25 7.72396051E-05 1.34193425E-04-3.89950545E-04 1.18879954E-05 7.34273582E-06
 2 26 3.44100957E-05-5.05267676E-05 2.32359302E-04-6.92130976E-04-5.91367385E-06
 2 27-2.94887591E-06 8.86254976E-06-2.59516533E-05-6.52670596E-06-1.63901224E-05
 2 28 2.30795299E-05 4.30936448E-05-8.43598630E-05-6.26707255E-06 1.01128444E-05
 2 29 6.43261905E-06 9.08200994E-05-1.32133253E-04-1.73941336E-04 9.62751884E-07
 2 30-1.15905639E-06 1.96304503E-07-2.43351263E-06-9.15073521E-06-4.56016761E-06
 2 31-1.78823049E-05-2.24465616E-05 8.44428313E-04 1.60661493E-05 2.17354287E-05
 2 32-1.28937077E-07 2.15791449E-04-3.72577034E-05-2.75213032E-04-3.04024049E-05
 2 33 2.14849504E-05 8.91745453E-06-2.40683921E-06-9.12603922E-06-1.37480838E-05
 2 34-2.63957433E-05-4.72561272E-05 3.21465612E-04 7.66447633E-06-2.98809733E-05
 2 35-2.56883722E-05-1.55080798E-04 1.26390588E-04 3.64036976E-05 1.30662319E-05
 2 36 1.85021139E-06-1.49164433E-05 2.96274728E-05-1.34835440E-05-1.47906316E-05
 2 37 1.12924720E-04 1.86017712E-04 2.51972246E-03-1.27917764E-04 2.40216113E-04
 2 38-5.09083698E-05-2.04114746E-03 1.78149913E-03-1.02525667E-03-1.54352658E-04
 2 39 1.35894773E-04 1.84578851E-05 1.42759386E-04-3.33010897E-05 2.36232161E-04
 2 40-5.18567613E-06-5.94035753E-06 2.35496934E-04-1.12405357E-05-4.52878527E-06
 2 41-6.79894075E-06-3.84156089E-05-8.67888208E-05 3.26921435E-05 6.02062931E-06
 2 42-1.03414226E-05 4.32079330E-06 1.77068768E-06 2.50977613E-06 6.25834745E-06
 2 43 1.79297664E-05 2.91448093E-05-4.28432583E-04 5.60436078E-06-1.06753002E-05
 2 44 1.14401021E-05 1.98798191E-05-1.24826717E-04-5.40229176E-05 7.71879987E-06
 2 45-8.30707220E-06 5.88272328E-07 5.32151050E-06 6.36236813E-06 8.30623127E-06
 2 46 1.49821987E-05 2.85748018E-05-3.82032494E-05 3.08597392E-05 1.75794814E-05
 2 47-1.80382863E-06-1.64206121E-04-1.50748357E-04 1.05794686E-04-5.20619474E-06
 2 48-1.45624180E-05 1.97686128E-05 1.18511868E-05 3.48860018E-06-4.20372456E-07
 2 49-1.59835249E-05-2.64264957E-05 2.95647687E-04 3.10934974E-07-3.51223968E-06
 2 50-6.25093789E-06 1.35434402E-05 1.66202727E-04-5.94468482E-05-8.15311488E-06
 2 51 6.46411186E-06 1.68900302E-06-3.27943176E-06-9.78263381E-06-4.41676791E-06
 2 52-7.86521457E-06-1.46343138E-05-4.10122014E-05-1.33061972E-05-9.68809986E-06
 2 53 8.73543414E-06 8.14061940E-05 9.92595674E-06 3.06160905E-05 3.97858026E-06
 2 54 4.34048252E-06-8.31906277E-06-3.59609669E-06-6.39848730E-06-2.04719806E-06
 2 55 3.66946062E-06 6.23696719E-06-1.17331806E-04 1.88792867E-06 5.21203913E-06
 2 56-4.95661309E-06-6.76094504E-05-1.77701477E-05 4.79229493E-05-5.83323832E-06
 2 57 4.55612275E-06 1.27711557E-06-1.84059094E-06 5.99839577E-06-1.99330348E-06
 2 58 2.89104647E-06 3.97976345E-06-1.44896210E-04-1.88709702E-06 6.16520580E-06
 2 59 2.71157930E-06-8.19238720E-05-8.20109147E-06 7.27136398E-05 3.25596020E-06
 2 60-1.50781791E-06-1.74814229E-06-2.51928927E-06 5.19492246E-06-2.16513929E-07
 2 61 9.85330808E-05 2.16589620E-04 1.61787388E-03 1.77275559E-05-3.40733864E-04
 2 62-1.30034752E-04 1.57404577E-04-4.26620611E-04-2.63488623E-05 6.05669781E-05
 2 63-5.24914941E-05-8.07548398E-06-7.30887319E-05-1.03724465E-04-1.53869800E-04
 2 64 6.63501794E-05-5.76764575E-05-3.20620720E-05-6.35689506E-06-5.47457248E-05
 2 65-2.97263415E-05-2.11906393E-04-1.59280871E-05 2.35766859E-06 2.28215510E-05
 2 66 5.40193067E-06-1.11266846E-04-9.46675869E-07-2.84260502E-05 3.97475765E-05
 2 67-1.00033083E-04 8.96900038E-05 1.05123707E-05-9.85195199E-06-1.20563915E-05
 2 68 1.24664655E-05-2.10674214E-05-9.15976201E-06 7.38738693E-06 1.28143379E-05
 2 69-2.21760616E-05-3.23174142E-05 6.73677532E-06 1.92891372E-06 2.24404198E-06
 2 70 6.76188070E-06 5.08640648E-05-6.09549619E-06-6.45614352E-06 4.30076366E-07
 2 71 1.41896804E-05 6.19559517E-06-1.85878990E-06 9.15089595E-06 2.06384373E-06
 2 72 6.02874253E-05 1.28453632E-05-9.01929854E-06-1.59185684E-05 3.32095602E-06
 2 73 5.55407303E-06-9.19117125E-06 4.00121681E-06-1.07429713E-06 9.09706769E-07
 2 74-1.10456328E-05-1.76823454E-05-1.79646613E-06 4.08636062E-06-1.43959999E-06
 2 75-4.04127689E-07 4.00175913E-05-3.52381865E-06-6.57389797E-06 4.07851832E-06
 2 76-2.03232377E-06 8.49861084E-06-8.56665447E-06-3.65883642E-06 1.69155994E-08
 2 77-2.18417757E-06-2.33069898E-05 5.68538375E-06-9.38365267E-07-2.41578134E-06
 2 78-2.97842276E-04-2.53665383E-04-1.88178775E-05 8.47631217E-05 8.68039472E-05
 2 79-2.07456546E-04-9.85102157E-05-5.92121601E-05 6.84571651E-05-2.82410036E-05
 2 80-2.85443461E-04-2.61462916E-04 4.23514880E-05 1.12181791E-04 1.94814660E-05
 2 81 3.22034751E-06 3.84864797E-06 4.26906179E-06 2.93841986E-06 6.87486750E-07
 3  1 2.85763949E-04-1.43810396E-04 5.29921788E-04-6.24433110E-05 9.27928825E-05
 3  2-1.21786210E-05-5.74889816E-05-8.50114967E-04-4.51690848E-04-5.92906688E-05
 3  3 1.01908791E-04-4.26181226E-05-1.24190913E-05-8.22321238E-05 3.84052537E-05
 3  4-7.55870330E-05-7.01881130E-05 2.72588996E-04 9.41361764E-07 5.18879887E-06
 3  5 3.31940382E-06-2.70760249E-05-1.56591142E-05 4.92930565E-05 4.85203446E-06
 3  6-2.58603999E-06-2.26599448E-06-2.27400389E-06 3.39676760E-07 2.94356206E-07
 3  7 1.00146447E+00 2.22065174E-03-7.05869890E-03-1.24077916E-03-2.86734376E-04
 3  8-1.29875906E-03 1.23458513E-03 3.06107267E-04 1.29731740E-03-4.45193969E-06
 3  9 7.04958215E-06-2.59764245E-06-2.88120616E-05 2.25319209E-04 9.36646520E-05
 3 10-1.05753968E-05-3.38873571E-05 1.53933683E-04 2.13499664E-06-9.49443485E-07
 3 11 1.84770263E-06-5.37231811E-05-2.23698045E-05-2.68830075E-05-8.04663452E-07
 3 12-3.72817200E-06 4.53283545E-06 1.68856227E-06-7.95792954E-09 2.59683925E-06
 3 13-6.86193843E-04-2.15805744E-05 1.05619923E-04 6.49017421E-07-8.51421702E-08
 3 14-5.41958320E-06 1.38826952E-05 4.17780642E-05 1.54914999E-05-1.41604603E-06
 3 15 4.28218973E-07 9.87827060E-07 2.49787748E-06-3.62620400E-07 5.11889186E-07
 3 16-5.13431349E-05-9.80758429E-05 7.57940598E-04 3.56108677E-05-3.06748276E-05
 3 17 2.51063592E-05-3.05529966E-04 2.33953811E-04-8.34943956E-05-9.81996543E-06
 3 18-3.16923539E-06 1.29892008E-05 1.13776639E-05-3.82630666E-05-1.18055183E-05
 3 19 2.01837124E-06 3.00035517E-06-5.89650913E-05 5.52441809E-06 2.86792610E-07
 3 20 4.70772226E-07-1.66015425E-05-5.74362453E-05-1.87037228E-05 4.11907041E-06
 3 21-4.93384939E-06 8.14778986E-07 2.13799432E-06 2.61898473E-06 1.72440892E-06
 3 22-2.87065934E-05-8.13814313E-05 1.62945071E-04-2.88757626E-05-3.50543039E-05
 3 23-2.65155009E-05-1.12740866E-03 8.64133576E-04-9.00825822E-04-7.80336027E-06
 3 24 1.32313571E-04-1.24510211E-04-1.91163061E-04-7.50906589E-05-7.94142050E-05
 3 25-9.92576786E-05-1.68512312E-04 8.23913006E-04-9.65529595E-07-2.59542715E-05
 3 26-1.19131326E-05-2.50285620E-04-1.01776541E-04 1.01174725E-03 2.87152623E-05
 3 27-3.68054776E-05 8.09021531E-06-2.20755961E-05 1.15092474E-05 3.61788935E-05
 3 28-3.30602182E-05-6.01823573E-05 2.32033891E-04 1.93073675E-06-1.20578963E-05
 3 29 7.47428185E-07 1.19874955E-04 2.15912558E-04 7.19787915E-05-1.00017052E-05
 3 30-1.00960433E-06 1.10113095E-05-4.22369357E-06-4.64115360E-08 4.37653057E-06
 3 31 3.64401791E-05 6.62738204E-05-5.23845269E-04 2.17239465E-06 2.12057722E-05
 3 32 2.57433298E-06-3.30381853E-04-5.44753038E-04 9.16896790E-04 1.56753097E-05
 3 33-2.82559602E-06-1.28497136E-05 7.96373134E-06 1.22430346E-05 2.96710811E-05
 3 34 4.80153037E-06 6.87331228E-06-6.68014229E-05 5.59080296E-06 1.77472695E-05
 3 35 1.17008666E-05-1.72164886E-04-2.31539978E-04 9.75620450E-05 2.94231502E-06
 3 36 9.12618766E-08-3.03357690E-06 7.23726449E-06 1.25096563E-05-1.78463850E-05
 3 37 2.42588314E-04 2.81659477E-04 1.93948270E-03-6.19501306E-05-3.77545074E-05
 3 38-6.72032453E-05 2.64665304E-03 1.79632407E-04 2.57728348E-03-1.85888879E-04
 3 39 4.15971417E-04-2.30082538E-04-1.73908846E-04-5.54364302E-04-6.52265364E-05
 3 40 9.25029537E-06 1.57478703E-05-2.11926655E-04-7.13526727E-07 5.65478780E-06
 3 41 1.22954828E-05 4.97568206E-05 1.54653637E-04 5.90790252E-05 1.63043405E-06
 3 42 1.32492816E-05-1.48797157E-05-5.60124723E-06-6.92291401E-07-4.04511175E-06
 3 43 7.97805478E-06 1.33305392E-05-3.94107707E-04-8.68832167E-06-9.77527088E-07
 3 44-5.60815181E-06 1.79895967E-04-2.55713704E-04-3.31472065E-05-1.10545232E-07
 3 45 2.05495258E-06-1.94440735E-06 1.23373303E-05-1.81809489E-06-1.18696958E-06
 3 46 4.16639472E-05 7.56433404E-05-5.29180582E-04 2.42999698E-05-8.62256326E-06
 3 47 7.24002487E-06-6.75277783E-06 3.41384898E-04-3.70048779E-04 2.74459958E-05
 3 48-3.17615484E-05 4.31555266E-06 1.82373041E-05-2.62756176E-06 1.03498389E-05
 3 49 6.48484095E-06 1.15966075E-05 1.56600158E-04 1.58222490E-06 4.71048939E-06
 3 50-1.33166453E-06-7.70014776E-05 7.21661430E-05 4.25428858E-05 2.49792926E-06
 3 51-4.21995840E-06 1.72202914E-06-5.21583867E-07 4.52498926E-06 6.00033017E-06
 3 52-1.10320920E-05-1.77194051E-05 4.85991705E-04 2.83834587E-06 1.69847386E-06
 3 53-5.64011549E-06 1.46134558E-04-1.07072150E-05-2.00714611E-04 3.61483832E-06
 3 54 4.25755694E-06-7.87239526E-06-2.93759704E-06-1.55878749E-05 2.72058331E-06
 3 55 1.89555066E-05 3.52455563E-05-1.65959274E-04-6.37020514E-06 1.44053353E-05
 3 56-1.94268899E-05 9.82130860E-05-1.13579174E-04-8.56803664E-05 1.53608146E-06
 3 57-1.37203995E-06-1.64041516E-07-1.59821702E-05-8.15979606E-06-7.33135337E-06
 3 58 9.19748564E-06 1.50728535E-05-2.12153924E-04 2.91782773E-06-4.91165154E-06
 3 59-1.93004984E-06-7.38868614E-05 2.72676978E-05 1.24274322E-04 6.54634543E-06
 3 60-3.16570067E-06-3.38064476E-06 4.78704951E-07 4.88171353E-06 4.19875342E-06
 3 61-1.98240399E-05-3.33279130E-05 8.16326085E-04-7.66075247E-06-7.66259920E-05
 3 62-4.08848762E-05 4.66895492E-05-2.40910750E-04-4.45090516E-05-1.63572129E-05
 3 63 1.08025890E-06 1.52769540E-05 5.00407838E-05-1.28228359E-05 3.41886784E-05
 3 64-2.29963885E-05-1.29254450E-04 7.27749886E-05-1.76273084E-05 6.48488601E-05
 3 65-3.47838643E-05 5.21099299E-05-3.08378590E-06-4.06092533E-06-4.20781995E-05
 3 66-1.85975323E-06 2.31740111E-04 6.96125853E-07 1.94739768E-05-3.27525497E-05
 3 67-2.13091356E-05-4.34687270E-05-1.19603090E-07-5.11929531E-05 1.88580576E-05
 3 68 1.13571193E-05 7.97214996E-05 1.91148321E-06 1.62781805E-07-7.50410662E-06
 3 69 8.06449778E-06 4.83126344E-06-9.45857392E-07-6.65462221E-06-2.46315503E-07
 3 70-3.78367205E-07-1.02829604E-04 1.32747395E-06 1.24409328E-05-6.07511499E-06
 3 71-1.39799847E-05-1.11175253E-04-3.92325120E-06 9.05075203E-07-1.32510207E-06
 3 72 1.17364154E-05-1.33672239E-04 2.53140395E-05-6.08633678E-06 1.30146294E-05
 3 73-7.54729909E-06-1.24750777E-05-4.95554312E-06-4.54449253E-08-1.01055910E-06
 3 74 9.54756773E-06 4.07042086E-05-3.64727140E-06-5.67474014E-06 3.26714965E-06
 3 75 2.70277895E-06 7.76767114E-06 3.63214388E-06 7.57790973E-08-2.09364640E-06
 3 76-1.18151666E-05 4.00013036E-05-6.70697288E-06 1.06928828E-06 7.71043806E-06
 3 77-6.33121387E-07-3.12773888E-05 2.17830100E-06-8.35631417E-08-4.55686233E-06
 3 78-1.14958537E-04-1.73378639E-04-4.15274530E-05 4.51634905E-05 3.48816010E-05
 3 79-3.31903276E-05 2.67903321E-05 1.40045265E-05-2.99368953E-06 1.04109589E-05
 3 80-1.11332035E-04-1.75450943E-04 9.73497458E-06 6.87694370E-05-1.97200412E-05
 3 81-1.54406081E-05 1.47051710E-05-1.25066931E-05-5.90273974E-06 4.76546402E-06
 4  1 5.60338757E-06 9.52576342E-06-6.57192301E-05-3.32698910E-06-1.40071588E-06
 4  2-3.42549857E-06-1.22669289E-05 6.02702613E-05 1.36592779E-05-1.19119753E-06
 4  3-1.62254772E-06 2.81374524E-06 6.24194344E-06 6.77237084E-07 2.53621123E-06
 4  4 3.34528072E-05 3.49727537E-05-1.46442359E-04-4.11730726E-07-3.87539699E-06
 4  5-4.95840220E-06 6.90693040E-06 2.10681701E-05-1.30216079E-05 1.27912043E-06
 4  6 4.51875492E-07-1.73099593E-06 1.37233611E-06-8.65422041E-08-1.25055868E-06
 4  7 6.60253370E-04-2.42001345E-05 1.70501665E-04-2.41623201E-06-2.20373600E-05
 4  8 1.40525603E-05-3.32708088E-05 6.68977061E-05-9.40704948E-05 3.72169045E-06
 4  9-1.05061831E-05 6.78449267E-06-5.58218803E-06 5.58853911E-06-2.35169369E-06
 4 10 2.93968911E-04-1.75411121E-04 4.45141354E-04 2.25697951E-05 5.01343121E-05
 4 11 5.55907675E-05 5.00889680E-04 1.14777293E-04-4.53187493E-04-4.00136787E-05
 4 12-4.20618334E-05 8.20755121E-05-8.07723563E-05-6.53306699E-05-4.37351400E-06
 4 13 1.00142508E+00 2.15431000E-03-6.73936913E-03 1.44745054E-03 1.04504301E-03
 4 14-1.93765993E-04-1.41145723E-03-1.02589810E-03 1.59371697E-04 5.89332349E-05
 4 15-4.16163490E-05-1.73168859E-05 1.95275908E-04-7.69231600E-05 6.29479678E-05
 4 16 2.11866426E-05 4.08238316E-05-9.93848647E-06 1.44579344E-05 7.22100810E-06
 4 17 1.76603694E-05-1.79382096E-05-5.89109811E-05-6.09637223E-05 1.61831572E-06
 4 18 7.29443536E-06-8.91275108E-06 3.99108318E-06-1.48117031E-05-6.11230043E-08
 4 19-8.37458285E-06-1.70195225E-05-5.87690243E-05-2.95087513E-06-5.93029128E-06
 4 20-1.37644202E-05 5.28745356E-05 8.68336397E-05 1.13486538E-04-2.37723094E-06
 4 21-3.35159106E-07 2.71239004E-06-7.01148532E-06-8.63791671E-06 6.38132359E-06
 4 22-4.86012928E-06-6.86280062E-06 1.78548532E-05-1.94958201E-06-5.49237319E-07
 4 23-2.24657987E-06 1.15027650E-04 5.68879440E-05 1.12424372E-04-5.11189377E-06
 4 24-3.85351266E-07 5.49724503E-06-1.74730214E-06 7.49287853E-06 5.85721341E-06
 4 25 5.53190559E-06 9.71070982E-06-1.83942741E-05 2.73661864E-06 2.81357180E-06
 4 26 2.10899670E-06 7.23797090E-05 2.84135578E-06-1.05868011E-04 5.52438086E-06
 4 27-3.09083952E-06-2.43354134E-06 2.11574794E-07-1.10430673E-06-2.04270291E-06
 4 28-6.19630295E-05-1.24401987E-04 9.85771276E-04-2.35148579E-05-1.14453408E-05
 4 29-2.55264504E-05 6.94958318E-05 1.30387739E-04 2.28266249E-04-9.91006582E-06
 4 30 1.29590111E-05-3.04894533E-06-2.92992771E-05 5.80091516E-06-4.86772138E-05
 4 31-3.46743898E-06-5.38607878E-06 9.00648487E-05 2.77366445E-06-1.52769824E-06
 4 32 2.39697108E-06 1.50312661E-05 5.26999641E-05-6.96234781E-05-1.24236595E-06
 4 33-2.16406676E-06 3.40643271E-06-3.52250291E-06-2.03624038E-07-4.16089002E-06
 4 34 1.47844900E-05 2.47802506E-05-7.91658433E-05-1.92914024E-05 1.17322616E-05
 4 35 5.83730743E-06 4.54310401E-05 9.66300103E-05-1.70552636E-04-2.80464693E-05
 4 36 2.52694698E-05 2.77699953E-06 1.55386928E-05-1.10825890E-05 1.25736473E-05
 4 37-8.48299888E-06-1.57707415E-05-1.22106123E-04-1.38563975E-05-1.25320949E-06
 4 38-3.05800408E-06-1.62324473E-04 2.93591725E-05-1.02673040E-04-1.93493662E-06
 4 39-2.17631193E-06 4.11124855E-06-3.18688912E-05-3.84031601E-06-3.00666321E-05
 4 40-3.45415130E-05-8.82340492E-05 4.65955085E-04 6.51784662E-05 8.21047821E-06
 4 41-5.91029993E-05 2.03694192E-04 9.25608026E-04 1.05211556E-03-1.93321243E-04
 4 42-2.52522753E-06 1.95846471E-04-6.06059704E-05 3.98742960E-05 2.16956281E-04
 4 43 5.45756578E-06 1.06612148E-05-3.96887122E-08 5.15063574E-06 2.31963668E-06
 4 44 6.60987866E-06-1.25674094E-05 1.35743810E-05-2.92539753E-05 2.90630259E-06
 4 45-1.03126581E-06-1.87503678E-06 2.99650993E-07 3.40101851E-06 2.20740010E-06
 4 46-1.69363564E-06-2.93231687E-06 8.97412578E-06 9.49232730E-07 1.82545392E-06
 4 47 1.52568986E-07-1.21644391E-05-1.55411852E-05 2.87890884E-05-1.13677714E-06
 4 48 1.47189857E-06-3.35121425E-07-1.96220509E-06 2.70650146E-07-1.95200922E-06
 4 49 9.89232062E-07 2.74888897E-06 2.33853675E-05 5.53455191E-06 2.73576150E-06
 4 50-1.94531934E-06 1.86535077E-06-1.48347632E-05-8.19782915E-06 1.54066093E-06
 4 51 8.20463303E-07-2.36112424E-06 4.83743043E-07-2.17948505E-06-1.60358297E-06
 4 52-7.11868923E-07-1.39945639E-06-2.87611755E-05-9.22521675E-07 7.57159006E-07
 4 53 8.34257662E-07-9.52527750E-07-5.02383523E-06 7.30755316E-06-6.20449949E-08
 4 54-2.00103008E-08 8.20552958E-08-1.03151336E-07-4.45368313E-07-6.29535729E-07
 4 55 2.26308829E-04 2.52325510E-04 1.69993051E-03 7.93891887E-05 4.73055637E-05
 4 56 1.61844520E-05-2.72134259E-03-1.86113125E-03 3.80575741E-04-3.71766600E-04
 4 57-3.73987614E-05 4.09165362E-04-5.21631986E-04 3.23922351E-05 1.57640232E-04
 4 58-1.71841985E-06-2.98959790E-06 1.37049215E-05-2.19957211E-07-4.07520889E-07
 4 59 1.09874565E-06 8.54829162E-06 4.38233594E-06-1.03930650E-05 1.03629391E-06
 4 60-1.25225851E-06 2.15964598E-07-7.75473422E-07-2.10613255E-06-1.75603094E-06
 4 61 3.37160917E-06 5.88638014E-06-5.46382601E-05 1.27392906E-06 3.04467744E-06
 4 62 1.87094251E-06-6.19089546E-06 2.47136179E-05-2.49811319E-06 1.68409051E-06
 4 63 1.07256651E-07-1.79134716E-06-3.44419810E-06 1.33868051E-07-2.59605124E-06
 4 64 6.20315966E-06-1.46102320E-05-1.05053983E-05-5.44752584E-06-1.03958367E-05
 4 65 2.42831458E-06 2.48559093E-06-2.64583395E-06 8.67074809E-07 6.36234604E-06
 4 66-3.47518933E-06-2.12894743E-05 6.29549906E-07-6.92943044E-07 3.93965843E-06
 4 67-8.59090293E-06-4.25355088E-05 1.10489945E-05-6.43533949E-06 1.72359259E-05
 4 68-9.02355614E-05-7.66131746E-05-4.01906524E-06-1.90250850E-05-4.60122103E-05
 4 69 9.63784660E-05-6.75319430E-05-6.26524364E-05-5.66197643E-05-4.59731904E-05
 4 70-5.06957051E-06-1.37366913E-04-5.84598147E-05-6.59191070E-05-4.56624826E-05
 4 71 5.19810508E-06-2.40822035E-06 3.82335279E-06-6.53106222E-08 3.26343032E-06
 4 72 1.38176762E-06 5.11410263E-06-2.92789508E-07 7.43955104E-07-1.56972711E-06
 4 73 6.09986890E-05 6.67416113E-05 6.30702706E-07 1.30503161E-05 8.55025230E-06
 4 74-9.96550382E-06 7.95652709E-06-9.13130298E-07-1.07471969E-05-1.05125283E-05
 4 75-1.69360398E-06-1.28408401E-05 2.24610474E-06-1.18487502E-06 1.13399699E-06
 4 76 1.96462310E-06 1.10743676E-06 2.34113704E-08 4.03797978E-11-2.02144170E-07
 4 77 8.21445389E-09 5.10303015E-06-2.37017155E-07-6.37066500E-07 6.38219421E-07
 4 78 6.87915692E-06 1.61493864E-05 2.78505696E-06-2.07462704E-06-2.97910538E-06
 4 79 4.46592498E-07-7.62099393E-06-1.58075483E-06 5.51907977E-07-9.73082758E-07
 4 80 7.97528005E-06 3.03285163E-06 1.72306926E-07-2.90638695E-06 8.54798433E-07
 4 81 1.47238225E-04-8.48696902E-06 5.43229905E-05 4.48034426E-05 1.67004929E-05
 5  1 1.29137899E-05 2.78398431E-05-1.95548976E-04-1.09341559E-05 7.75178767E-06
 5  2 1.22306783E-05 6.04127659E-07-5.88449882E-06-8.45781815E-05-2.86552227E-06
 5  3 5.24971279E-06-2.38419052E-06 1.92470202E-06-1.42162532E-06 4.57510591E-06
 5  4 1.00146724E+00 2.22013577E-03-7.12588722E-03-4.89231120E-04-8.74929393E-04
 5  5 1.47521191E-03 4.83029991E-04 8.55255738E-04-1.51629052E-03 2.03428767E-05
 5  6-7.89527474E-05 5.86098707E-05-2.16379104E-05-5.54416312E-05-1.90152755E-04
 5  7-8.29828718E-06-8.40169422E-05 4.45643272E-04-1.13509274E-05 1.24881522E-05
 5  8-1.00171780E-05-1.86021005E-05-1.49430750E-04-1.14627603E-04-2.53778965E-06
 5  9-1.01676639E-06 3.55455604E-06 2.94943863E-06 4.54571836E-06 1.91273571E-06